[TITLE]
Scenario: Base Scenario
Date: 02/07/2010 9:50:27 AM

[JUNCTIONS]
;ID              	Elev        	Demand      	Pattern         
 J1              	150.5       	64          	   1            	;
 J2              	152.8       	33.6        	   1            	;
 J3              	164.0       	34.5        	   1            	;
 J4              	136.4       	9.9         	   1            	;
 J5              	148.0       	17.2        	   1            	;
 J6              	147.6       	23.3        	   1            	;
 J7              	149.5       	0           	   1            	;
 J8              	138.9       	9.1         	   1            	;
 J9              	169.5       	14          	   1            	;
 J10             	149.1       	12.0        	   1            	;
 J11             	125.0       	29.5        	   1            	;
 J12             	139.5       	8.1         	   1            	;
 J13             	147.3       	10.5        	   1            	;
 J14             	149.5       	0           	   1            	;
 J15             	151.2       	0           	   1            	;
 J16             	144.8       	19.2        	   1            	;
 J17             	163.7       	5.75        	   1            	;
 J18             	147.9       	2.22        	   1            	;
 J19             	154.2       	1.98        	   1            	;
 J20             	161.5       	5.3         	   1            	;
 J21             	141.5       	26.91       	   1            	;
 J22             	155.5       	11.4        	   1            	;
 J23             	158.6       	19.7        	   1            	;
 J24             	132.5       	33.42       	   1            	;
 J25             	142.2       	2.6         	   1            	;
 J26             	164.6       	0.17        	   1            	;
 J27             	159.3       	14.2        	   1            	;
 J28             	170.4       	4           	   1            	;
 J29             	145.5       	13.42       	   1            	;
 J30             	155.7       	25.5        	   1            	;
 J31             	160.4       	0.62        	   1            	;
 J32             	141.6       	37.24       	   1            	;
 J33             	145.7       	10.5        	   1            	;
 J34             	149.5       	0           	   1            	;

[RESERVOIRS]
;ID              	Head        	Pattern         
 R1              	167.5       	                	;
 R3              	195.0       	                	;
 R2              	133.7       	                	;

[TANKS]
;ID              	Elevation   	InitLevel   	MinLevel    	MaxLevel    	Diameter    	MinVol      	VolCurve        	Overflow

[PIPES]
;ID              	Node1           	Node2           	Length      	Diameter    	Roughness   	MinorLoss   	Status
 P1              	J32             	J21             	1215        	600         	0.045      	0           	Open  	;
 P2              	J24             	J25             	677         	600         	0.045      	0           	Open  	;
 P3              	J24             	J32             	1505        	600         	0.045      	0           	Open  	;
 P4              	J25             	J6              	1686        	750         	0.045      	0           	Open  	;
 P5              	J23             	J9              	325         	400         	0.045      	0           	Open  	;
 P6              	J22             	J27             	340         	300         	0.045      	0           	Open  	;
 P7              	J27             	J26             	681         	600         	0.045      	0           	Open  	;
 P8              	J18             	J22             	1055        	300         	0.045      	0           	Open  	;
 P9              	J30             	J6              	1107        	400         	0.045      	0           	Open  	;
 P10             	J22             	J31             	575         	300         	0.045      	0           	Open  	;
 P11             	J4              	J33             	986         	500         	0.045      	0           	Open  	;
 P12             	J2              	J10             	811         	500         	0.045      	0           	Open  	;
 P13             	J7              	J2              	60          	750         	0.045      	0           	Open  	;
 P14             	J8              	J16             	482         	750         	0.045      	0           	Open  	;
 P15             	J16             	J28             	1664        	750         	0.045      	0           	Open  	;
 P16             	J10             	J19             	368         	300         	0.045      	0           	Open  	;
 P18             	J23             	J1              	2475        	600         	0.045      	0           	Open  	;
 P19             	J9              	J17             	1020        	300         	0.045      	0           	Open  	;
 P20             	J2              	J17             	773         	300         	0.045      	0           	Open  	;
 P21             	J10             	J8              	1185        	750         	0.045      	0           	Open  	;
 P22             	J17             	J20             	837         	300         	0.045      	0           	Open  	;
 P23             	J33             	J27             	2040        	500         	0.045      	0           	Open  	;
 P24             	J26             	J28             	693         	600         	0.045      	0           	Open  	;
 P25             	J29             	J18             	617         	400         	0.045      	0           	Open  	;
 P26             	J19             	J16             	1435        	300         	0.045      	0           	Open  	;
 P27             	J5              	J21             	1007        	600         	0.045      	0           	Open  	;
 P28             	J13             	J22             	1190        	300         	0.045      	0           	Open  	;
 P29             	J6              	J5              	909         	600         	0.045      	0           	Open  	;
 P30             	J2              	J23             	1120        	750         	0.045      	0           	Open  	;
 P31             	J33             	J13             	158         	300         	0.045      	0           	Open  	;
 P32             	J15             	R1              	978         	900         	0.045      	0           	Open  	;
 P33             	J3              	J31             	800         	300         	0.045      	0           	Open  	;
 P34             	J15             	J14             	45          	900         	0.045      	0           	Open  	;
 P35             	J8              	J12             	620         	750         	0.045      	0           	Open  	;
 P36             	J20             	J3              	1495        	400         	0.045      	0           	Open  	;
 P37             	J20             	J19             	480         	300         	0.045      	0           	Open  	;
 P38             	J28             	R3              	2535        	750         	0.045      	0           	Open  	;
 P39             	J31             	J26             	262         	300         	0.045      	0           	Open  	;
 P40             	J10             	J8              	1234        	300         	0.045      	0           	Open  	;
 P41             	J11             	J24             	1060        	600         	0.045      	0           	Open  	;
 P42             	J21             	J4              	1900        	750         	0.045      	0           	Open  	;
 P43             	J18             	J13             	419         	300         	0.045      	0           	Open  	;
 P44             	J4              	J12             	423         	750         	0.045      	0           	Open  	;
 P45             	J12             	J29             	380         	400         	0.045      	0           	Open  	;

[PUMPS]
;ID              	Node1           	Node2           	Parameters
 PS1-P1          	R2              	J11             	HEAD PS1-P1	SPEED 1	 ;
 PS1-P2          	R2              	J11             	HEAD PS1-P2	SPEED 1	 ;
 PS1-P3          	R2              	J11             	HEAD PS1-P3	SPEED 1	 ;
 PS1-P4          	R2              	J11             	HEAD PS1-P4	SPEED 1	 ;
 PS2-P1          	J14             	J7              	HEAD PS2-P1	SPEED 1	 ;
 PS2-P2          	J14             	J7              	HEAD PS2-P2	SPEED 1	 ;
 PS2-P3          	J14             	J34             	HEAD PS2-P3	SPEED 1	 ;
 PS2-P4          	J14             	J7              	HEAD PS2-P4	SPEED 1	 ;

[VALVES]
;ID              	Node1           	Node2           	Diameter    	Type	Setting   	MinorLoss      
 V1              	J34             	J7              	750         	TCV			0	        0      	 	;

[TAGS]

[DEMANDS]
;Junction        	Demand      	Pattern         	Category

[STATUS]
;ID              	Status/Setting
 PS1-P2          	Closed
 PS1-P3          	Closed
 PS1-P4          	Closed
 PS2-P2          	Closed
 PS2-P3          	Closed
 V1					Closed

[PATTERNS]
;ID              	Multipliers
;
 1               	1           
		

[CURVES]
;ID              	X-Value     	Y-Value
;PUMP: PUMP:
 PS1-P1          	0           	113         
 PS1-P1          	115.7       	96          
 PS1-P1          	173.6       	88          
 PS1-P1          	231         	80          
 PS1-P1          	289         	70.6        
 PS1-P1          	347         	62          
 PS1-P1          	406         	46          
;PUMP: PUMP:
 PS1-P2          	0           	113         
 PS1-P2          	115.7       	96          
 PS1-P2          	173.6       	88          
 PS1-P2          	231         	80          
 PS1-P2          	289         	70.6        
 PS1-P2          	347         	62          
 PS1-P2          	406         	46          
;PUMP: PUMP:
 PS1-P3          	0           	113         
 PS1-P3          	115.7       	96          
 PS1-P3          	173.6       	88          
 PS1-P3          	231         	80          
 PS1-P3          	289         	70.6        
 PS1-P3          	347         	62          
 PS1-P3          	406         	46          
;PUMP: PUMP:
 PS1-P4          	0           	113         
 PS1-P4          	115.7       	96          
 PS1-P4          	173.6       	88          
 PS1-P4          	231         	80          
 PS1-P4          	289         	70.6        
 PS1-P4          	347         	62          
 PS1-P4          	406         	46          
;PUMP: PUMP:
 PS2-P1          	0           	47.1        
 PS2-P1          	33.13       	46.03       
 PS2-P1          	45.76       	45.68       
 PS2-P1          	58.38       	45.31       
 PS2-P1          	71.01       	44.91       
 PS2-P1          	83.64       	44.5        
 PS2-P1          	96.26       	44.06       
 PS2-P1          	159.39      	41.06       
 PS2-P1          	222.53      	36.66       
 PS2-P1          	285.66      	30.79       
 PS2-P1          	310.91      	27.57       
 PS2-P1          	336.16      	20.28       
 PS2-P1          	342.47      	5.27        
;PUMP: PUMP:
 PS2-P2          	0           	45.72       
 PS2-P2          	31.565      	40.93       
 PS2-P2          	37.88       	37.73       
 PS2-P2          	44.19       	34.36       
 PS2-P2          	50.505      	26.64       
 PS2-P2          	56.82       	15.81       
;PUMP: PUMP:
 PS2-P3          	0           	47.1        
 PS2-P3          	63.13       	46.03       
 PS2-P3          	75.76       	45.68       
 PS2-P3          	88.38       	45.31       
 PS2-P3          	101.01      	44.91       
 PS2-P3          	113.64      	44.5        
 PS2-P3          	126.26      	44.06       
 PS2-P3          	189.39      	41.06       
 PS2-P3          	252.53      	36.66       
 PS2-P3          	315.66      	30.79       
 PS2-P3          	340.91      	27.57       
 PS2-P3          	366.16      	20.28       
 PS2-P3          	372.47      	5.27        
;PUMP: PUMP:
 PS2-P4          	0           	45.72       
 PS2-P4          	63.13       	40.93       
 PS2-P4          	75.76       	37.73       
 PS2-P4          	88.38       	34.36       
 PS2-P4          	101.01      	26.64       
 PS2-P4          	113.64      	15.81       

[CONTROLS]
Link PS1-P2 OPEN AT CLOCKTIME 00:00:30
Link PS2-P2 OPEN AT CLOCKTIME 00:00:30
Link PS1-P1 CLOSED AT CLOCKTIME 00:02:30




[RULES]

[ENERGY]
 Global Efficiency  	75
 Global Price       	0
 Demand Charge      	0

[EMITTERS]
;Junction        	Coefficient

[QUALITY]
;Node            	InitQual

[SOURCES]
;Node            	Type        	Quality     	Pattern

[REACTIONS]
;Type     	Pipe/Tank       	Coefficient


[REACTIONS]
 Order Bulk            	1
 Order Tank            	1
 Order Wall            	1
 Global Bulk           	0
 Global Wall           	0
 Limiting Potential    	0
 Roughness Correlation 	0

[MIXING]
;Tank            	Model

[TIMES]
 Duration           	0:08:20
 Hydraulic Timestep 	0:00:10
 Quality Timestep   	0:00:01
 Pattern Timestep   	0:00:01
 Pattern Start      	0:00:00
 Report Timestep    	0:00:10
 Report Start       	0:00:00
 Start ClockTime    	12 am
 Statistic          	NONE

[REPORT]
 Status             	Full
 Trials                 Yes
 Summary            	Yes
 Page               	0
 Nodes                  All
 Links                  All 

[OPTIONS]
 Flow_Units              	LPS
 Pressure_Units             METERS
 Headloss_Model           	D-W
 Specific_Gravity       	1
 Specific_Viscosity         1
 Maximum_Trials            	100
 Relative_Accuracy      	0.001
 Unbalanced              	Continue
 Demand_Pattern            	1
 Demand_Multiplier      	1.0
 Emitter_Exponent       	0.5
 Quality_Model            	None mg/L
 Specific_Diffusivity      	1
 Quality_Tolerance        	0.001
 Head_Tolerance             0.001
 Flow_Tolerance             0.001
 Flow_Change_Limit          0
 Step_Sizing                FULL
 VALVE_REP_TYPE             Toe
 Demand_Model               FIXED
 MINIMUM_PRESSURE           0
 SERVICE_PRESSURE           0.1
 PRESSURE_EXPONENT          0.5
 Hyd_Solver                 CGGA
 Time_Weight                0.5
 TEMP_DISC_PARA             1

[COORDINATES]
;Node            	X-Coord           	Y-Coord
J1              	609210.540        	4815930.100       
J2              	607015.210        	4812984.740       
J3              	604567.980        	4812388.300       
J4              	605125.940        	4810613.500       
J5              	603261.800        	4809307.430       
J6              	602767.920        	4808564.360       
J7              	607142.140        	4812875.580       
J8              	605738.750        	4811408.500       
J9              	607195.320        	4814193.410       
J10             	606507.320        	4812356.120       
J11             	601838.500        	4806324.370       
J12             	605398.920        	4810967.550       
J13             	604237.380        	4810855.500       
J14             	607250.210        	4812782.310       
J15             	607429.350        	4812622.420       
J16             	605314.640        	4811597.750       
J17             	606455.660        	4813519.970       
J18             	604510.690        	4811161.500       
J19             	606237.630        	4812607.000       
J20             	605895.040        	4812944.130       
J21             	603953.160        	4809107.600       
J22             	603789.140        	4811609.380       
J23             	607755.040        	4813938.970       
J24             	602297.060        	4806948.790       
J25             	601710.230        	4807257.810       
J26             	603884.370        	4812234.240       
J27             	603464.690        	4811699.430       
J28             	604314.000        	4812775.000       
J29             	605122.480        	4811156.500       
J30             	602010.720        	4809333.340       
J31             	604071.970        	4812051.830       
J32             	603212.500        	4808145.000       
J33             	604238.050        	4810699.100       
J34             	607143.620        	4812820.800       
R1              	607619.680        	4812445.250       
R3              	602597.660        	4814551.110       
R2              	601817.690        	4806293.460       

[VERTICES]
;Link            	X-Coord           	Y-Coord
P2              	602275.540        	4806966.970       
P2              	602265.820        	4806975.080       
P2              	602257.440        	4806982.080       
P2              	602248.860        	4806989.240       
P2              	602239.380        	4806997.160       
P2              	602228.570        	4807006.180       
P2              	602216.260        	4807016.460       
P2              	602192.210        	4807036.540       
P2              	602170.320        	4807051.590       
P2              	602155.910        	4807059.060       
P2              	602149.950        	4807062.140       
P2              	602143.460        	4807064.700       
P2              	602130.990        	4807069.610       
P2              	602126.790        	4807071.260       
P2              	602015.260        	4807104.290       
P2              	601976.830        	4807115.540       
P2              	601842.090        	4807155.080       
P2              	601820.700        	4807164.480       
P2              	601804.170        	4807173.370       
P2              	601788.530        	4807183.690       
P2              	601720.340        	4807244.730       
P2              	601715.170        	4807251.420       
P2              	601712.240        	4807255.200       
P4              	601713.550        	4807260.640       
P4              	601809.270        	4807342.340       
P4              	601846.020        	4807374.680       
P4              	601855.280        	4807384.370       
P4              	601920.270        	4807467.190       
P4              	601933.390        	4807481.220       
P4              	602021.200        	4807562.750       
P4              	602049.220        	4807593.780       
P4              	602140.250        	4807713.910       
P5              	607583.590        	4814056.160       
P5              	607561.050        	4814059.980       
P5              	607517.100        	4814061.800       
P5              	607399.720        	4814051.500       
P5              	607357.510        	4814059.070       
P5              	607321.380        	4814074.530       
P6              	603566.090        	4811621.020       
P7              	603467.750        	4811703.000       
P7              	603468.250        	4811707.500       
P7              	603483.380        	4811726.500       
P7              	603491.310        	4811730.500       
P8              	604330.980        	4811362.910       
P8              	604331.010        	4811363.540       
P8              	604331.080        	4811365.010       
P8              	604329.880        	4811503.740       
P8              	604318.620        	4811564.160       
P8              	604259.110        	4811603.060       
P8              	604196.710        	4811603.640       
P8              	603984.870        	4811600.360       
P8              	603854.420        	4811597.560       
P10             	603850.410        	4811835.120       
P10             	603861.530        	4811851.770       
P10             	603862.010        	4811852.710       
P10             	603896.670        	4811916.180       
P10             	603921.310        	4811944.090       
P10             	604027.300        	4812008.440       
P10             	604053.280        	4812030.090       
P11             	604860.660        	4810793.040       
P11             	604725.150        	4810790.820       
P14             	605715.560        	4811426.500       
P14             	605658.190        	4811449.000       
P14             	605647.310        	4811457.000       
P14             	605617.690        	4811479.000       
P14             	605566.810        	4811528.500       
P14             	605531.630        	4811560.000       
P14             	605502.380        	4811576.500       
P14             	605448.500        	4811588.500       
P15             	605133.450        	4811623.620       
P15             	604800.440        	4811973.070       
P15             	604746.990        	4812341.030       
P18             	608601.200        	4815094.050       
P18             	608727.020        	4815372.710       
P19             	607093.990        	4814061.540       
P19             	607057.150        	4814021.900       
P19             	606901.450        	4813948.570       
P19             	606820.750        	4813905.960       
P19             	606778.110        	4813862.580       
P19             	606727.230        	4813791.050       
P19             	606617.440        	4813656.340       
P19             	606518.090        	4813596.300       
P22             	606348.710        	4813384.210       
P22             	606314.090        	4813355.780       
P22             	606152.620        	4813300.380       
P22             	606123.700        	4813275.920       
P22             	606033.790        	4813158.960       
P23             	603904.440        	4810659.730       
P23             	603622.730        	4810710.820       
P23             	603598.670        	4810718.320       
P23             	603574.360        	4810727.320       
P23             	603550.290        	4810736.820       
P23             	603331.480        	4810863.640       
P23             	603070.250        	4811108.890       
P23             	603066.690        	4811180.860       
P26             	606123.150        	4812480.960       
P26             	606010.390        	4812410.400       
P26             	605675.270        	4812219.240       
P26             	605476.640        	4811995.250       
P27             	603331.690        	4809406.630       
P27             	603477.260        	4809567.910       
P27             	603494.560        	4809568.200       
P27             	603678.640        	4809390.330       
P27             	603784.550        	4809286.760       
P27             	603938.810        	4809135.350       
P28             	603904.440        	4811116.170       
P28             	603756.520        	4811162.660       
P28             	603687.430        	4811023.260       
P28             	603636.550        	4811030.610       
P28             	603593.030        	4811054.610       
P28             	603556.120        	4811081.750       
P28             	603495.650        	4811138.480       
P28             	603454.680        	4811166.620       
P28             	603474.270        	4811203.740       
P28             	603482.610        	4811230.720       
P28             	603485.000        	4811249.180       
P28             	603484.760        	4811285.540       
P28             	603478.830        	4811315.600       
P28             	603471.340        	4811359.530       
P28             	603470.750        	4811401.100       
P28             	603487.980        	4811459.620       
P28             	603504.570        	4811488.020       
P28             	603780.980        	4811462.330       
P29             	603050.430        	4808915.070       
P29             	603058.290        	4809060.160       
P30             	607016.470        	4813014.880       
P31             	604226.320        	4810787.720       
P31             	604227.040        	4810813.600       
P33             	604381.950        	4812239.170       
P33             	604253.560        	4812207.440       
P33             	604204.480        	4812185.420       
P33             	604164.540        	4812158.920       
P33             	604134.510        	4812130.650       
P33             	604131.530        	4812126.450       
P33             	604118.350        	4812111.970       
P33             	604111.820        	4812103.500       
P33             	604110.090        	4812101.310       
P33             	604102.490        	4812091.620       
P33             	604097.940        	4812085.830       
P33             	604097.150        	4812084.830       
P33             	604094.930        	4812082.000       
P33             	604084.570        	4812068.810       
P36             	605603.350        	4812658.840       
P36             	605416.360        	4812530.690       
P36             	605350.730        	4812506.380       
P36             	605254.370        	4812481.030       
P36             	605152.580        	4812472.180       
P36             	605024.000        	4812484.290       
P36             	604907.770        	4812515.510       
P36             	604802.250        	4812544.860       
P36             	604727.010        	4812540.900       
P36             	604704.890        	4812532.280       
P36             	604657.130        	4812506.190       
P36             	604644.090        	4812482.900       
P39             	604011.050        	4812109.710       
P39             	603948.790        	4812180.770       
P39             	603911.620        	4812211.820       
P40             	606511.330        	4812298.090       
P40             	605795.790        	4811427.220       
P42             	604362.210        	4809633.930       
P43             	604466.860        	4811146.560       
P43             	604437.710        	4811125.860       
P43             	604394.840        	4811072.790       
P43             	604302.340        	4810949.320       
P43             	604249.040        	4810878.900       
P45             	605285.640        	4811057.480       
P45             	605259.440        	4811080.050       
P45             	605227.050        	4811092.060       
P45             	605167.720        	4811106.980       
PS1-P1          	601837.570        	4806278.400       
PS1-P1          	601858.660        	4806309.730       
PS1-P2          	601832.150        	4806295.270       
PS1-P2          	601842.390        	4806310.930       
PS1-P3          	601798.410        	4806306.720       
PS1-P3          	601819.500        	4806338.050       
PS1-P4          	601815.880        	4806304.310       
PS1-P4          	601826.130        	4806321.780       
PS2-P1          	607193.950        	4812709.760       
PS2-P1          	607088.840        	4812811.920       
PS2-P2          	607303.510        	4812845.970       
PS2-P2          	607193.950        	4812937.750       
PS2-P3          	607189.510        	4812777.860       
PS2-P4          	607250.210        	4812848.930       
PS2-P4          	607202.840        	4812888.900       

[LABELS]
;X-Coord             Y-Coord             Label & Anchor Node

[BACKDROP]
  DIMENSIONS  	599139.270        	4806000.000       	609683.190        	4819932.940       
 UNITS          	None
 FILE           	
 OFFSET         	0.00            	0.00            

[END]
