[TITLE]


[JUNCTIONS]
;ID              	Elev        	Demand      	Pattern         
 N3              	0           	0           	                	;
 N2              	0           	250          	                	;
 N5              	0           	0           	                	;
 N4              	0           	250          	                	;
 N6              	0           	0           	                	;
 N7              	0           	0           	                	;
 N8              	0           	1000         	                	;

[RESERVOIRS]
;ID              	Head        	Pattern         
 R1              	191         	                	;

[TANKS]
;ID              	Elevation   	InitLevel   	MinLevel    	MaxLevel    	Diameter    	MinVol      	VolCurve        	Overflow
 T1              	110         	10          	0           	20          	10          	0           	                	;
 T2              	110         	10          	0           	20          	15          	0           	                	;

[PIPES]
;ID              	Node1           	Node2           	Length      	Diameter    	Roughness   	MinorLoss   	Status
 P1              	R1              	N3              	610         	900         	0.3        	0           	Open  	;
 P2              	N3              	N4              	914         	750         	0.3        	0           	Open  	;
 P3              	N3              	N2              	610         	600         	0.3        	0           	Open  	;
 P4              	N4              	N6              	457         	450         	0.3        	0           	Open  	;
 P5              	N4              	N2              	549         	450         	0.3        	0           	Open  	;
 P6              	N5              	N2              	671         	750         	0.3        	0           	Open  	;
 P7              	N5              	N7              	1000        	900         	0.3        	0           	Open  	;
 P8              	N6              	N5              	457         	600         	0.3        	0           	Open  	;
 P9              	N2              	N6              	488         	450         	0.3        	0           	Open  	;
 P10             	N6              	T1              	400        	    400          	0.3         0           	Open  	;
 P11             	N8              	T2              	400        	    400         	0.3         0           	Open  	;

[PUMPS]
;ID              	Node1           	Node2           	Parameters

[VALVES]
;ID              	Node1           	Node2           	Diameter    	Type	Setting  MinorLoss   Pattern   
 VALVE           	N7              	N8              	200         	CCV 	1       	0          400	;

[TAGS]

[DEMANDS]
;Junction        	Demand      	Pattern         	Category

[STATUS]
;ID              	Status/Setting

[PATTERNS]
;ID              	Multipliers

10	1	1	1	1	1	1
10	1	1	1	1	0.9	0.8
10	0.7	0.6	0.5	0.4	0.3	0.2
10	0.1	0	0	0	0	0
10	0	0	0	0	0	0
10	0	0	0	0	0	0
10	0	0	0	0	0	0
10	0	0	0	0	0	0
10	0	0	0	0	0	0
10	0	0	0	0	0	0
10	0	0	0	0	0	0
10	0	0	0	0	0	0
10	0	0	0	0	0	0
10	0	0	0	0	0	0
10	0	0	0	0	0	0
10	0	0	0	0	0	0
10	0	0	0	0	0	0
10	0	0	0	0	0	0
10	0	0	0	0	0	0
10	0	0	0	0	0	0
10	0	0	0	0	0	0
10	0	0	0	0	0	0
10	0	0	0	0	0	0
10	0	0	0	0	0	0
10	0	0	0	0	0	0
10	0	0	0	0	0	0
10	0	0	0	0	0	0
10	0	0	0	0	0	0
10	0	0	0	0	0	0
10	0	0	0	0	0	0
10	0	0	0	0	0	0
10	0	0	0	0	0	0
10	0	0	0	0	0	0
10	0	0	0	0	0	0
10	0	0	0	0	0	0
10	0	0	0	0	0	0
10	0	0	0	0	0	0
10	0	0	0	0	0	0
10	0	0	0	0	0	0
10	0	0	0	0	0	0
10	0	0	0	0	0	0
10	0	0	0	0	0	0
10	0	0	0	0	0	0
10	0	0	0	0	0	0
10	0	0	0	0	0	0
10	0	0	0	0	0	0
10	0	0	0	0	0	0
10	0	0	0	0	0	0
10	0	0	0	0	0	0
10	0	0	0	0	0	0
10	0	0	0	0	0	0
10	0	0	0	0	0	0
10	0	0	0	0	0	0
10	0	0	0	0	0	0
10	0	0	0	0	0	0
10	0	0	0	0	0	0
10	0	0	0	0	0	0
10	0	0	0	0	0	0
10	0	0	0	0	0	0
10	0	0	0	0	0	0
10	0	0	0	0	0	0
10	0	0	0	0	0	0
10	0	0	0	0	0	0
10	0	0	0	0	0	0
10	0	0	0	0	0	0
10	0	0	0	0	0	0
10	0	0	0	0	0	0
10	0	0	0	0	0	0
10	0	0	0	0	0	0
10	0	0	0	0	0	0
10	0	0	0	0	0	0
10	0	0	0	0	0	0
10	0	0	0	0	0	0
10	0	0	0	0	0	0
10	0	0	0	0	0	0
10	0	0	0	0	0	0
10	0	0	0	0	0	0
10	0	0	0	0	0	0
10	0	0	0	0	0	0
10	0	0	0	0	0	0
10	0	0	0	0	0	0
10	0	0	0	0	0	0
10	0	0	0	0	0	0
10	0	0	0	0	0	0
10	0	0	0	0	0	0
10	0	0	0	0	0	0
10	0	0	0	0	0	0
10	0	0	0	0	0	0
10	0	0	0	0	0	0
10	0	0	0	0	0	0
10	0	0	0	0	0	0
10	0	0	0	0	0	0
10	0	0	0	0	0	0
10	0	0	0	0	0	0
10	0	0	0	0	0	0
10	0	0	0	0	0	0
10	0	0	0	0	0	0
10	0	0	0	0	0	0
10	0	0	0	0	0	0
10	0	0	0	0	0	0
10	0	0	0	0	0	0
10	0	0	0	0	0	0
10	0	0	0	0	0	0
10	0	0	0	0	0	0
10	0	0	0	0	0	0
10	0	0	0	0	0	0
10	0	0	0	0	0	0
10	0	0	0	0	0	0
10	0	0	0	0	0	0
10	0	0	0	0	0	0
10	0	0	0	0	0	0
10	0	0	0	0	0	0
10	0	0	0	0	0	0
10	0	0	0	0	0	0
10	0	0	0	0	0	0
10	0	0	0	0	0	0
10	0	0	0	0	0	0
10	0	0	0	0	0	0
10	0	0	0	0	0	0
10	0	0	0	0	0	0
10	0	0	0	0	0	0
10	0	0	0	0	0	0
10	0	0	0	0	0	0
10	0	0	0	0	0	0
10	0	0	0	0	0	0
10	0	0	0	0	0	0
10	0	0	0	0	0	0
10	0	0	0	0	0	0
10	0	0	0	0	0	0
10	0	0	0	0	0	0
10	0	0	0	0	0	0
10	0	0	0	0	0	0
10	0	0	0	0	0	0
10	0	0	0	0	0	0
10	0	0	0	0	0	0
10	0	0	0	0	0	0
10	0	0	0	0	0	0
10	0	0	0	0	0	0
10	0	0	0	0	0	0
10	0	0	0	0	0	0
10	0	0	0	0	0	0
10	0	0	0	0	0	0
10	0	0	0	0	0	0
10	0	0	0	0	0	0
10	0	0	0	0	0	0
10	0	0	0	0	0	0
10	0	0	0	0	0	0
10	0	0	0	0	0	0
10	0	0	0	0	0	0
10	0	0	0	0	0	0
10	0	0	0	0	0	0

50	1	1	1	1	1	1
50	1	1	1	1	0.98	0.96
50	0.94	0.92	0.9	0.88	0.86	0.84
50	0.82	0.8	0.78	0.76	0.74	0.72
50	0.7	0.68	0.66	0.64	0.62	0.6
50	0.58	0.56	0.54	0.52	0.5	0.48
50	0.46	0.44	0.42	0.4	0.38	0.36
50	0.34	0.32	0.3	0.28	0.26	0.24
50	0.22	0.2	0.18	0.16	0.14	0.12
50	0.1	0.08	0.06	0.04	0.02	0
50	0	0	0	0	0	0
50	0	0	0	0	0	0
50	0	0	0	0	0	0
50	0	0	0	0	0	0
50	0	0	0	0	0	0
50	0	0	0	0	0	0
50	0	0	0	0	0	0
50	0	0	0	0	0	0
50	0	0	0	0	0	0
50	0	0	0	0	0	0
50	0	0	0	0	0	0
50	0	0	0	0	0	0
50	0	0	0	0	0	0
50	0	0	0	0	0	0
50	0	0	0	0	0	0
50	0	0	0	0	0	0
50	0	0	0	0	0	0
50	0	0	0	0	0	0
50	0	0	0	0	0	0
50	0	0	0	0	0	0
50	0	0	0	0	0	0
50	0	0	0	0	0	0
50	0	0	0	0	0	0
50	0	0	0	0	0	0
50	0	0	0	0	0	0
50	0	0	0	0	0	0
50	0	0	0	0	0	0
50	0	0	0	0	0	0
50	0	0	0	0	0	0
50	0	0	0	0	0	0
50	0	0	0	0	0	0
50	0	0	0	0	0	0
50	0	0	0	0	0	0
50	0	0	0	0	0	0
50	0	0	0	0	0	0
50	0	0	0	0	0	0
50	0	0	0	0	0	0
50	0	0	0	0	0	0
50	0	0	0	0	0	0
50	0	0	0	0	0	0
50	0	0	0	0	0	0
50	0	0	0	0	0	0
50	0	0	0	0	0	0
50	0	0	0	0	0	0
50	0	0	0	0	0	0
50	0	0	0	0	0	0
50	0	0	0	0	0	0
50	0	0	0	0	0	0
50	0	0	0	0	0	0
50	0	0	0	0	0	0
50	0	0	0	0	0	0
50	0	0	0	0	0	0
50	0	0	0	0	0	0
50	0	0	0	0	0	0
50	0	0	0	0	0	0
50	0	0	0	0	0	0
50	0	0	0	0	0	0
50	0	0	0	0	0	0
50	0	0	0	0	0	0
50	0	0	0	0	0	0
50	0	0	0	0	0	0
50	0	0	0	0	0	0
50	0	0	0	0	0	0
50	0	0	0	0	0	0
50	0	0	0	0	0	0
50	0	0	0	0	0	0
50	0	0	0	0	0	0
50	0	0	0	0	0	0
50	0	0	0	0	0	0
50	0	0	0	0	0	0
50	0	0	0	0	0	0
50	0	0	0	0	0	0
50	0	0	0	0	0	0
50	0	0	0	0	0	0
50	0	0	0	0	0	0
50	0	0	0	0	0	0
50	0	0	0	0	0	0
50	0	0	0	0	0	0
50	0	0	0	0	0	0
50	0	0	0	0	0	0
50	0	0	0	0	0	0
50	0	0	0	0	0	0
50	0	0	0	0	0	0
50	0	0	0	0	0	0
50	0	0	0	0	0	0
50	0	0	0	0	0	0
50	0	0	0	0	0	0
50	0	0	0	0	0	0
50	0	0	0	0	0	0
50	0	0	0	0	0	0
50	0	0	0	0	0	0
50	0	0	0	0	0	0
50	0	0	0	0	0	0
50	0	0	0	0	0	0
50	0	0	0	0	0	0
50	0	0	0	0	0	0
50	0	0	0	0	0	0
50	0	0	0	0	0	0
50	0	0	0	0	0	0
50	0	0	0	0	0	0
50	0	0	0	0	0	0
50	0	0	0	0	0	0
50	0	0	0	0	0	0
50	0	0	0	0	0	0
50	0	0	0	0	0	0
50	0	0	0	0	0	0
50	0	0	0	0	0	0
50	0	0	0	0	0	0
50	0	0	0	0	0	0
50	0	0	0	0	0	0
50	0	0	0	0	0	0
50	0	0	0	0	0	0
50	0	0	0	0	0	0
50	0	0	0	0	0	0
50	0	0	0	0	0	0
50	0	0	0	0	0	0
50	0	0	0	0	0	0
50	0	0	0	0	0	0
50	0	0	0	0	0	0
50	0	0	0	0	0	0
50	0	0	0	0	0	0
50	0	0	0	0	0	0
50	0	0	0	0	0	0
50	0	0	0	0	0	0
50	0	0	0	0	0	0
50	0	0	0	0	0	0
50	0	0	0	0	0	0
50	0	0	0	0	0	0
50	0	0	0	0	0	0
50	0	0	0	0	0	0
50	0	0	0	0	0	0
50	0	0	0	0	0	0
50	0	0	0	0	0	0
50	0	0	0	0	0	0
50	0	0	0	0	0	0
50	0	0	0	0	0	0
50	0	0	0	0	0	0
50	0	0	0	0	0	0
50	0	0	0	0	0	0
50	0	0	0	0	0	0


100	1	1	1	1	1	1
100	1	1	1	1	0.99	0.98
100	0.97	0.96	0.95	0.94	0.93	0.92
100	0.91	0.9	0.89	0.88	0.87	0.86
100	0.85	0.84	0.83	0.82	0.81	0.8
100	0.79	0.78	0.77	0.76	0.75	0.74
100	0.73	0.72	0.71	0.7	0.69	0.68
100	0.67	0.66	0.65	0.64	0.63	0.62
100	0.61	0.6	0.59	0.58	0.57	0.56
100	0.55	0.54	0.53	0.52	0.51	0.5
100	0.49	0.48	0.47	0.46	0.45	0.44
100	0.43	0.42	0.41	0.4	0.39	0.38
100	0.37	0.36	0.35	0.34	0.33	0.32
100	0.31	0.3	0.29	0.28	0.27	0.26
100	0.25	0.24	0.23	0.22	0.21	0.2
100	0.19	0.18	0.17	0.16	0.15	0.14
100	0.13	0.12	0.11	0.1	0.09	0.08
100	0.07	0.06	0.05	0.04	0.03	0.02
100	0.01	0	0	0	0	0
100	0	0	0	0	0	0
100	0	0	0	0	0	0
100	0	0	0	0	0	0
100	0	0	0	0	0	0
100	0	0	0	0	0	0
100	0	0	0	0	0	0
100	0	0	0	0	0	0
100	0	0	0	0	0	0
100	0	0	0	0	0	0
100	0	0	0	0	0	0
100	0	0	0	0	0	0
100	0	0	0	0	0	0
100	0	0	0	0	0	0
100	0	0	0	0	0	0
100	0	0	0	0	0	0
100	0	0	0	0	0	0
100	0	0	0	0	0	0
100	0	0	0	0	0	0
100	0	0	0	0	0	0
100	0	0	0	0	0	0
100	0	0	0	0	0	0
100	0	0	0	0	0	0
100	0	0	0	0	0	0
100	0	0	0	0	0	0
100	0	0	0	0	0	0
100	0	0	0	0	0	0
100	0	0	0	0	0	0
100	0	0	0	0	0	0
100	0	0	0	0	0	0
100	0	0	0	0	0	0
100	0	0	0	0	0	0
100	0	0	0	0	0	0
100	0	0	0	0	0	0
100	0	0	0	0	0	0
100	0	0	0	0	0	0
100	0	0	0	0	0	0
100	0	0	0	0	0	0
100	0	0	0	0	0	0
100	0	0	0	0	0	0
100	0	0	0	0	0	0
100	0	0	0	0	0	0
100	0	0	0	0	0	0
100	0	0	0	0	0	0
100	0	0	0	0	0	0
100	0	0	0	0	0	0
100	0	0	0	0	0	0
100	0	0	0	0	0	0
100	0	0	0	0	0	0
100	0	0	0	0	0	0
100	0	0	0	0	0	0
100	0	0	0	0	0	0
100	0	0	0	0	0	0
100	0	0	0	0	0	0
100	0	0	0	0	0	0
100	0	0	0	0	0	0
100	0	0	0	0	0	0
100	0	0	0	0	0	0
100	0	0	0	0	0	0
100	0	0	0	0	0	0
100	0	0	0	0	0	0
100	0	0	0	0	0	0
100	0	0	0	0	0	0
100	0	0	0	0	0	0
100	0	0	0	0	0	0
100	0	0	0	0	0	0
100	0	0	0	0	0	0
100	0	0	0	0	0	0
100	0	0	0	0	0	0
100	0	0	0	0	0	0
100	0	0	0	0	0	0
100	0	0	0	0	0	0
100	0	0	0	0	0	0
100	0	0	0	0	0	0
100	0	0	0	0	0	0
100	0	0	0	0	0	0
100	0	0	0	0	0	0
100	0	0	0	0	0	0
100	0	0	0	0	0	0
100	0	0	0	0	0	0
100	0	0	0	0	0	0
100	0	0	0	0	0	0
100	0	0	0	0	0	0
100	0	0	0	0	0	0
100	0	0	0	0	0	0
100	0	0	0	0	0	0
100	0	0	0	0	0	0
100	0	0	0	0	0	0
100	0	0	0	0	0	0
100	0	0	0	0	0	0
100	0	0	0	0	0	0
100	0	0	0	0	0	0
100	0	0	0	0	0	0
100	0	0	0	0	0	0
100	0	0	0	0	0	0
100	0	0	0	0	0	0
100	0	0	0	0	0	0
100	0	0	0	0	0	0
100	0	0	0	0	0	0
100	0	0	0	0	0	0
100	0	0	0	0	0	0
100	0	0	0	0	0	0
100	0	0	0	0	0	0
100	0	0	0	0	0	0
100	0	0	0	0	0	0
100	0	0	0	0	0	0
100	0	0	0	0	0	0
100	0	0	0	0	0	0
100	0	0	0	0	0	0
100	0	0	0	0	0	0
100	0	0	0	0	0	0
100	0	0	0	0	0	0
100	0	0	0	0	0	0
100	0	0	0	0	0	0
100	0	0	0	0	0	0
100	0	0	0	0	0	0
100	0	0	0	0	0	0
100	0	0	0	0	0	0
100	0	0	0	0	0	0
100	0	0	0	0	0	0
100	0	0	0	0	0	0
100	0	0	0	0	0	0
100	0	0	0	0	0	0
100	0	0	0	0	0	0
100	0	0	0	0	0	0
100	0	0	0	0	0	0
100	0	0	0	0	0	0
100	0	0	0	0	0	0
100	0	0	0	0	0	0
100	0	0	0	0	0	0
100	0	0	0	0	0	0
100	0	0	0	0	0	0


200	1	1	1	1	1	1
200	1	1	1	1	0.995	0.99
200	0.985	0.98	0.975	0.97	0.965	0.96
200	0.955	0.95	0.945	0.94	0.935	0.93
200	0.925	0.92	0.915	0.91	0.905	0.9
200	0.895	0.89	0.885	0.88	0.875	0.87
200	0.865	0.86	0.855	0.85	0.845	0.84
200	0.835	0.83	0.825	0.82	0.815	0.81
200	0.805	0.8	0.795	0.79	0.785	0.78
200	0.775	0.77	0.765	0.76	0.755	0.75
200	0.745	0.74	0.735	0.73	0.725	0.72
200	0.715	0.71	0.705	0.7	0.695	0.69
200	0.685	0.68	0.675	0.67	0.665	0.66
200	0.655	0.65	0.645	0.64	0.635	0.63
200	0.625	0.62	0.615	0.61	0.605	0.6
200	0.595	0.59	0.585	0.58	0.575	0.57
200	0.565	0.56	0.555	0.55	0.545	0.54
200	0.535	0.53	0.525	0.52	0.515	0.51
200	0.505	0.5	0.495	0.49	0.485	0.48
200	0.475	0.47	0.465	0.46	0.455	0.45
200	0.445	0.44	0.435	0.43	0.425	0.42
200	0.415	0.41	0.405	0.4	0.395	0.39
200	0.385	0.38	0.375	0.37	0.365	0.36
200	0.355	0.35	0.345	0.34	0.335	0.33
200	0.325	0.32	0.315	0.31	0.305	0.3
200	0.295	0.29	0.285	0.28	0.275	0.27
200	0.265	0.26	0.255	0.25	0.245	0.24
200	0.235	0.23	0.225	0.22	0.215	0.21
200	0.205	0.2	0.195	0.19	0.185	0.18
200	0.175	0.17	0.165	0.16	0.155	0.15
200	0.145	0.14	0.135	0.13	0.125	0.12
200	0.115	0.11	0.105	0.1	0.095	0.09
200	0.085	0.08	0.075	0.07	0.065	0.06
200	0.055	0.05	0.045	0.04	0.035	0.03
200	0.025	0.02	0.015	0.01	0.005	0
200	0	0	0	0	0	0
200	0	0	0	0	0	0
200	0	0	0	0	0	0
200	0	0	0	0	0	0
200	0	0	0	0	0	0
200	0	0	0	0	0	0
200	0	0	0	0	0	0
200	0	0	0	0	0	0
200	0	0	0	0	0	0
200	0	0	0	0	0	0
200	0	0	0	0	0	0
200	0	0	0	0	0	0
200	0	0	0	0	0	0
200	0	0	0	0	0	0
200	0	0	0	0	0	0
200	0	0	0	0	0	0
200	0	0	0	0	0	0
200	0	0	0	0	0	0
200	0	0	0	0	0	0
200	0	0	0	0	0	0
200	0	0	0	0	0	0
200	0	0	0	0	0	0
200	0	0	0	0	0	0
200	0	0	0	0	0	0
200	0	0	0	0	0	0
200	0	0	0	0	0	0
200	0	0	0	0	0	0
200	0	0	0	0	0	0
200	0	0	0	0	0	0
200	0	0	0	0	0	0
200	0	0	0	0	0	0
200	0	0	0	0	0	0
200	0	0	0	0	0	0
200	0	0	0	0	0	0
200	0	0	0	0	0	0
200	0	0	0	0	0	0
200	0	0	0	0	0	0
200	0	0	0	0	0	0
200	0	0	0	0	0	0
200	0	0	0	0	0	0
200	0	0	0	0	0	0
200	0	0	0	0	0	0
200	0	0	0	0	0	0
200	0	0	0	0	0	0
200	0	0	0	0	0	0
200	0	0	0	0	0	0
200	0	0	0	0	0	0
200	0	0	0	0	0	0
200	0	0	0	0	0	0
200	0	0	0	0	0	0
200	0	0	0	0	0	0
200	0	0	0	0	0	0
200	0	0	0	0	0	0
200	0	0	0	0	0	0
200	0	0	0	0	0	0
200	0	0	0	0	0	0
200	0	0	0	0	0	0
200	0	0	0	0	0	0
200	0	0	0	0	0	0
200	0	0	0	0	0	0
200	0	0	0	0	0	0
200	0	0	0	0	0	0
200	0	0	0	0	0	0
200	0	0	0	0	0	0
200	0	0	0	0	0	0
200	0	0	0	0	0	0
200	0	0	0	0	0	0
200	0	0	0	0	0	0
200	0	0	0	0	0	0
200	0	0	0	0	0	0
200	0	0	0	0	0	0
200	0	0	0	0	0	0
200	0	0	0	0	0	0
200	0	0	0	0	0	0
200	0	0	0	0	0	0
200	0	0	0	0	0	0
200	0	0	0	0	0	0
200	0	0	0	0	0	0
200	0	0	0	0	0	0
200	0	0	0	0	0	0
200	0	0	0	0	0	0
200	0	0	0	0	0	0
200	0	0	0	0	0	0
200	0	0	0	0	0	0
200	0	0	0	0	0	0
200	0	0	0	0	0	0
200	0	0	0	0	0	0
200	0	0	0	0	0	0
200	0	0	0	0	0	0
200	0	0	0	0	0	0
200	0	0	0	0	0	0
200	0	0	0	0	0	0
200	0	0	0	0	0	0
200	0	0	0	0	0	0
200	0	0	0	0	0	0
200	0	0	0	0	0	0
200	0	0	0	0	0	0
200	0	0	0	0	0	0
200	0	0	0	0	0	0
200	0	0	0	0	0	0
200	0	0	0	0	0	0
200	0	0	0	0	0	0
200	0	0	0	0	0	0
200	0	0	0	0	0	0
200	0	0	0	0	0	0
200	0	0	0	0	0	0
200	0	0	0	0	0	0
200	0	0	0	0	0	0
200	0	0	0	0	0	0
200	0	0	0	0	0	0
200	0	0	0	0	0	0
200	0	0	0	0	0	0
200	0	0	0	0	0	0
200	0	0	0	0	0	0
200	0	0	0	0	0	0


400	1	1	1	1	1	1
400	1	1	1	1	0.9975	0.995
400	0.9925	0.99	0.9875	0.985	0.9825	0.98
400	0.9775	0.975	0.9725	0.97	0.9675	0.965
400	0.9625	0.96	0.9575	0.955	0.9525	0.95
400	0.9475	0.945	0.9425	0.94	0.9375	0.935
400	0.9325	0.93	0.9275	0.925	0.9225	0.92
400	0.9175	0.915	0.9125	0.91	0.9075	0.905
400	0.9025	0.9	0.8975	0.895	0.8925	0.89
400	0.8875	0.885	0.8825	0.88	0.8775	0.875
400	0.8725	0.87	0.8675	0.865	0.8625	0.86
400	0.8575	0.855	0.8525	0.85	0.8475	0.845
400	0.8425	0.84	0.8375	0.835	0.8325	0.83
400	0.8275	0.825	0.8225	0.82	0.8175	0.815
400	0.8125	0.81	0.8075	0.805	0.8025	0.8
400	0.7975	0.795	0.7925	0.79	0.7875	0.785
400	0.7825	0.78	0.7775	0.775	0.7725	0.77
400	0.7675	0.765	0.7625	0.76	0.7575	0.755
400	0.7525	0.75	0.7475	0.745	0.7425	0.74
400	0.7375	0.735	0.7325	0.73	0.7275	0.725
400	0.7225	0.72	0.7175	0.715	0.7125	0.71
400	0.7075	0.705	0.7025	0.7	0.6975	0.695
400	0.6925	0.69	0.6875	0.685	0.6825	0.68
400	0.6775	0.675	0.6725	0.67	0.6675	0.665
400	0.6625	0.66	0.6575	0.655	0.6525	0.65
400	0.6475	0.645	0.6425	0.64	0.6375	0.635
400	0.6325	0.63	0.6275	0.625	0.6225	0.62
400	0.6175	0.615	0.6125	0.61	0.6075	0.605
400	0.6025	0.6	0.5975	0.595	0.5925	0.59
400	0.5875	0.585	0.5825	0.58	0.5775	0.575
400	0.5725	0.57	0.5675	0.565	0.5625	0.56
400	0.5575	0.555	0.5525	0.55	0.5475	0.545
400	0.5425	0.54	0.5375	0.535	0.5325	0.53
400	0.5275	0.525	0.5225	0.52	0.5175	0.515
400	0.5125	0.51	0.5075	0.505	0.5025	0.5
400	0.4975	0.495	0.4925	0.49	0.4875	0.485
400	0.4825	0.48	0.4775	0.475	0.4725	0.47
400	0.4675	0.465	0.4625	0.46	0.4575	0.455
400	0.4525	0.45	0.4475	0.445	0.4425	0.44
400	0.4375	0.435	0.4325	0.43	0.4275	0.425
400	0.4225	0.42	0.4175	0.415	0.4125	0.41
400	0.4075	0.405	0.4025	0.4	0.3975	0.395
400	0.3925	0.39	0.3875	0.385	0.3825	0.38
400	0.3775	0.375	0.3725	0.37	0.3675	0.365
400	0.3625	0.36	0.3575	0.355	0.3525	0.35
400	0.3475	0.345	0.3425	0.34	0.3375	0.335
400	0.3325	0.33	0.3275	0.325	0.3225	0.32
400	0.3175	0.315	0.3125	0.31	0.3075	0.305
400	0.3025	0.3	0.2975	0.295	0.2925	0.29
400	0.2875	0.285	0.2825	0.28	0.2775	0.275
400	0.2725	0.27	0.2675	0.265	0.2625	0.26
400	0.2575	0.255	0.2525	0.25	0.2475	0.245
400	0.2425	0.24	0.2375	0.235	0.2325	0.23
400	0.2275	0.225	0.2225	0.22	0.2175	0.215
400	0.2125	0.21	0.2075	0.205	0.2025	0.2
400	0.1975	0.195	0.1925	0.19	0.1875	0.185
400	0.1825	0.18	0.1775	0.175	0.1725	0.17
400	0.1675	0.165	0.1625	0.16	0.1575	0.155
400	0.1525	0.15	0.1475	0.145	0.1425	0.14
400	0.1375	0.135	0.1325	0.13	0.1275	0.125
400	0.1225	0.12	0.1175	0.115	0.1125	0.11
400	0.1075	0.105	0.1025	0.1	0.0975	0.095
400	0.0925	0.09	0.0875	0.085	0.0825	0.08
400	0.0775	0.075	0.0725	0.07	0.0675	0.065
400	0.0625	0.06	0.0575	0.055	0.0525	0.05
400	0.0475	0.045	0.0425	0.04	0.0375	0.035
400	0.0325	0.03	0.0275	0.025	0.0225	0.02
400	0.0175	0.015	0.0125	0.01	0.0075	0.005
400	0.0025	0	0	0	0	0
400	0	0	0	0	0	0
400	0	0	0	0	0	0
400	0	0	0	0	0	0
400	0	0	0	0	0	0
400	0	0	0	0	0	0
400	0	0	0	0	0	0
400	0	0	0	0	0	0
400	0	0	0	0	0	0
400	0	0	0	0	0	0
400	0	0	0	0	0	0
400	0	0	0	0	0	0
400	0	0	0	0	0	0
400	0	0	0	0	0	0
400	0	0	0	0	0	0
400	0	0	0	0	0	0
400	0	0	0	0	0	0
400	0	0	0	0	0	0
400	0	0	0	0	0	0
400	0	0	0	0	0	0
400	0	0	0	0	0	0
400	0	0	0	0	0	0
400	0	0	0	0	0	0
400	0	0	0	0	0	0
400	0	0	0	0	0	0
400	0	0	0	0	0	0
400	0	0	0	0	0	0
400	0	0	0	0	0	0
400	0	0	0	0	0	0
400	0	0	0	0	0	0
400	0	0	0	0	0	0
400	0	0	0	0	0	0
400	0	0	0	0	0	0
400	0	0	0	0	0	0
400	0	0	0	0	0	0
400	0	0	0	0	0	0
400	0	0	0	0	0	0
400	0	0	0	0	0	0
400	0	0	0	0	0	0
400	0	0	0	0	0	0
400	0	0	0	0	0	0
400	0	0	0	0	0	0
400	0	0	0	0	0	0
400	0	0	0	0	0	0
400	0	0	0	0	0	0
400	0	0	0	0	0	0
400	0	0	0	0	0	0
400	0	0	0	0	0	0
400	0	0	0	0	0	0
400	0	0	0	0	0	0
400	0	0	0	0	0	0
400	0	0	0	0	0	0
400	0	0	0	0	0	0
400	0	0	0	0	0	0
400	0	0	0	0	0	0
400	0	0	0	0	0	0
400	0	0	0	0	0	0
400	0	0	0	0	0	0
400	0	0	0	0	0	0
400	0	0	0	0	0	0
400	0	0	0	0	0	0
400	0	0	0	0	0	0
400	0	0	0	0	0	0
400	0	0	0	0	0	0
400	0	0	0	0	0	0
400	0	0	0	0	0	0
400	0	0	0	0	0	0
400	0	0	0	0	0	0
400	0	0	0	0	0	0
400	0	0	0	0	0	0
400	0	0	0	0	0	0
400	0	0	0	0	0	0
400	0	0	0	0	0	0
400	0	0	0	0	0	0
400	0	0	0	0	0	0
400	0	0	0	0	0	0
400	0	0	0	0	0	0
400	0	0	0	0	0	0
400	0	0	0	0	0	0
400	0	0	0	0	0	0
400	0	0	0	0	0	0
400	0	0	0	0	0	0



[CURVES]
;ID              	X-Value     	Y-Value

[CONTROLS]



[RULES]



[ENERGY]
 Global Efficiency  	75
 Global Price       	0
 Demand Charge      	0

[EMITTERS]
;Junction        	Coefficient

[QUALITY]
;Node            	InitQual

[SOURCES]
;Node            	Type        	Quality     	Pattern

[REACTIONS]
;Type     	Pipe/Tank       	Coefficient


[REACTIONS]
 Order Bulk            	1
 Order Tank            	1
 Order Wall            	1
 Global Bulk           	0
 Global Wall           	0
 Limiting Potential    	0
 Roughness Correlation 	0

[MIXING]
;Tank            	Model

[TIMES]
 Duration           	0:09
 Hydraulic Timestep 	0:00:05 
 Quality Timestep   	0:05 
 Pattern Timestep   	0:00:01 
 Pattern Start      	0:00 
 Report Timestep    	1:00 
 Report Start       	0:00 
 Start ClockTime    	12 am
 Statistic          	NONE

[REPORT]
 Status             	Full
 Trials                 Yes
 Summary            	Yes
 Page               	0
 Nodes                  All
 Links                  All 

[OPTIONS]
 Flow_Units              	LPS
 Pressure_Units             METERS
 Headloss_Model           	D-W
 Specific_Gravity       	1
 Specific_Viscosity         1
 Maximum_Trials            	33
 Relative_Accuracy      	0.001
 Unbalanced              	Continue
 Demand_Pattern            	1
 Demand_Multiplier      	1.0
 Emitter_Exponent       	0.5
 Quality_Model            	None mg/L
 Specific_Diffusivity      	1
 Quality_Tolerance        	0.001
 Head_Tolerance             0.001
 Flow_Tolerance             0.001
 Flow_Change_Limit          0.001
 Step_Sizing                FULL
 VALVE_REP_TYPE             Toe
 Demand_Model               LOGISTIC
 MINIMUM_PRESSURE           0
 SERVICE_PRESSURE           177
 PRESSURE_EXPONENT          0.5
 Hyd_Solver                 CGGA
 Time_Weight                0.5
 TEMP_DISC_PARA             1

[COORDINATES]
;Node            	X-Coord           	Y-Coord
N3              	87.450            	6543.210          
N2              	961.930           	5658.440          
N5              	2649.180          	5658.440          
N4              	1414.360          	6965.590          
N6              	2361.110          	6965.020          
N7              	3750.550          	5656.400          
N8              	4091.790          	5653.120          
R1              	-529.840          	7427.980          

[VERTICES]
;Link            	X-Coord           	Y-Coord

[LABELS]
;X-Coord             Y-Coord             Label & Anchor Node
-149.180          	7047.330          	"P1"	
601.850           	6944.440          	"P2"	
478.400           	6296.300          	"P3"	
1887.860          	7170.780          	"P4"	
992.800           	6522.630          	"P5"	
1774.690          	5617.280          	"P6"	
3184.160          	5607.000          	"P7"	
2582.450          	6306.080          	"P8"	
1620.370          	6584.360          	"P9"	
-632.720          	7366.260          	"R1"	
-77.160           	6481.480          	"N3"	
1404.320          	7201.650          	"N4"	
2350.820          	7160.490          	"N6"	
859.050           	5576.130          	"N2"	
2677.610          	5561.250          	"N5"	
3636.830          	5596.710          	"VALVE"	
3667.700          	5864.200          	"N7"	
4048.350          	5853.910          	"N8"	

[BACKDROP]
  DIMENSIONS  	0.000             	0.000             	10000.000         	10000.000         
 UNITS          	None
 FILE           	
 OFFSET         	0.00            	0.00            

[END]
