[TITLE]


[JUNCTIONS]
;ID              	Elev        	Demand      	Pattern         
 N3              	0           	0           	                	;
 N2              	0           	25          	                	;
 N5              	0           	0           	                	;
 N4              	0           	25          	                	;
 N6              	0           	0           	                	;
 N7              	0           	0           	                	;
 N8              	0           	100         	                	;

[RESERVOIRS]
;ID              	Head        	Pattern         
 R1              	191         	                	;

[TANKS]
;ID              	Elevation   	InitLevel   	MinLevel    	MaxLevel    	Diameter    	MinVol      	VolCurve        	Overflow
 T1              	110         	10          	0           	20          	10          	0           	                	;
 T2              	110         	10          	0           	20          	15          	0           	                	;

[PIPES]
;ID              	Node1           	Node2           	Length      	Diameter    	Roughness   	MinorLoss   	Status
 P1              	R1              	N3              	610         	900         	0.3        	0           	Open  	;
 P2              	N3              	N4              	914         	750         	0.3        	0           	Open  	;
 P3              	N3              	N2              	610         	600         	0.3        	0           	Open  	;
 P4              	N4              	N6              	457         	450         	0.3        	0           	Open  	;
 P5              	N4              	N2              	549         	450         	0.3        	0           	Open  	;
 P6              	N5              	N2              	671         	750         	0.3        	0           	Open  	;
 P7              	N5              	N7              	1000        	900         	0.3        	0           	Open  	;
 P8              	N6              	N5              	457         	600         	0.3        	0           	Open  	;
 P9              	N2              	N6              	488         	450         	0.3        	0           	Open  	;
 P10             	N6              	T1              	400        	    400          	0.3         0           	Open  	;
 P11             	N8              	T2              	400        	    400         	0.3         0           	Open  	;

[PUMPS]
;ID              	Node1           	Node2           	Parameters

[VALVES]
;ID              	Node1           	Node2           	Diameter    	Type	Setting  MinorLoss   Pattern   
 VALVE           	N7              	N8              	400         	CCV 	1       	0          100	;

[TAGS]

[DEMANDS]
;Junction        	Demand      	Pattern         	Category

[STATUS]
;ID              	Status/Setting


[PATTERNS]
;ID              	Multipliers

10	1	1	1	1	1	1
10	1	1	1	1	0.99	0.96
10	0.91	0.84	0.75	0.64	0.51	0.36
10	0.19	0.00	0	0	0	0
10	0	0	0	0	0	0
10	0	0	0	0	0	0
10	0	0	0	0	0	0
10	0	0	0	0	0	0
10	0	0	0	0	0	0
10	0	0	0	0	0	0
10	0	0	0	0	0	0
10	0	0	0	0	0	0
10	0	0	0	0	0	0
10	0	0	0	0	0	0
10	0	0	0	0	0	0
10	0	0	0	0	0	0
10	0	0	0	0	0	0
10	0	0	0	0	0	0
10	0	0	0	0	0	0
10	0	0	0	0	0	0
10	0	0	0	0	0	0
10	0	0	0	0	0	0
10	0	0	0	0	0	0
10	0	0	0	0	0	0
10	0	0	0	0	0	0
10	0	0	0	0	0	0
10	0	0	0	0	0	0
10	0	0	0	0	0	0
10	0	0	0	0	0	0
10	0	0	0	0	0	0
10	0	0	0	0	0	0
10	0	0	0	0	0	0
10	0	0	0	0	0	0
10	0	0	0	0	0	0
10	0	0	0	0	0	0
10	0	0	0	0	0	0
10	0	0	0	0	0	0
10	0	0	0	0	0	0
10	0	0	0	0	0	0
10	0	0	0	0	0	0
10	0	0	0	0	0	0
10	0	0	0	0	0	0
10	0	0	0	0	0	0
10	0	0	0	0	0	0
10	0	0	0	0	0	0
10	0	0	0	0	0	0
10	0	0	0	0	0	0
10	0	0	0	0	0	0
10	0	0	0	0	0	0
10	0	0	0	0	0	0
10	0	0	0	0	0	0
10	0	0	0	0	0	0
10	0	0	0	0	0	0
10	0	0	0	0	0	0
10	0	0	0	0	0	0
10	0	0	0	0	0	0
10	0	0	0	0	0	0
10	0	0	0	0	0	0
10	0	0	0	0	0	0
10	0	0	0	0	0	0
10	0	0	0	0	0	0
10	0	0	0	0	0	0
10	0	0	0	0	0	0
10	0	0	0	0	0	0
10	0	0	0	0	0	0
10	0	0	0	0	0	0
10	0	0	0	0	0	0
10	0	0	0	0	0	0
10	0	0	0	0	0	0
10	0	0	0	0	0	0
10	0	0	0	0	0	0
10	0	0	0	0	0	0
10	0	0	0	0	0	0
10	0	0	0	0	0	0
10	0	0	0	0	0	0
10	0	0	0	0	0	0
10	0	0	0	0	0	0
10	0	0	0	0	0	0
10	0	0	0	0	0	0
10	0	0	0	0	0	0
10	0	0	0	0	0	0
10	0	0	0	0	0	0
10	0	0	0	0	0	0
10	0	0	0	0	0	0
10	0	0	0	0	0	0
10	0	0	0	0	0	0
10	0	0	0	0	0	0
10	0	0	0	0	0	0
10	0	0	0	0	0	0
10	0	0	0	0	0	0
10	0	0	0	0	0	0
10	0	0	0	0	0	0
10	0	0	0	0	0	0
10	0	0	0	0	0	0
10	0	0	0	0	0	0
10	0	0	0	0	0	0
10	0	0	0	0	0	0
10	0	0	0	0	0	0
10	0	0	0	0	0	0
10	0	0	0	0	0	0
10	0	0	0	0	0	0
10	0	0	0	0	0	0
10	0	0	0	0	0	0
10	0	0	0	0	0	0
10	0	0	0	0	0	0
10	0	0	0	0	0	0
10	0	0	0	0	0	0
10	0	0	0	0	0	0
10	0	0	0	0	0	0
10	0	0	0	0	0	0
10	0	0	0	0	0	0
10	0	0	0	0	0	0
10	0	0	0	0	0	0
10	0	0	0	0	0	0
10	0	0	0	0	0	0
10	0	0	0	0	0	0
10	0	0	0	0	0	0
10	0	0	0	0	0	0
10	0	0	0	0	0	0
10	0	0	0	0	0	0
10	0	0	0	0	0	0
10	0	0	0	0	0	0
10	0	0	0	0	0	0
10	0	0	0	0	0	0
10	0	0	0	0	0	0
10	0	0	0	0	0	0
10	0	0	0	0	0	0
10	0	0	0	0	0	0
10	0	0	0	0	0	0
10	0	0	0	0	0	0
10	0	0	0	0	0	0
10	0	0	0	0	0	0
10	0	0	0	0	0	0
10	0	0	0	0	0	0
10	0	0	0	0	0	0
10	0	0	0	0	0	0
10	0	0	0	0	0	0
10	0	0	0	0	0	0
10	0	0	0	0	0	0
10	0	0	0	0	0	0
10	0	0	0	0	0	0
10	0	0	0	0	0	0
10	0	0	0	0	0	0
10	0	0	0	0	0	0
10	0	0	0	0	0	0
10	0	0	0	0	0	0
10	0	0	0	0	0	0
10	0	0	0	0	0	0
10	0	0	0	0	0	0
10	0	0	0	0	0	0


50	1	1	1	1	1	1
50	1	1	1	1	0.9996	0.9984
50	0.9964	0.9936	0.9900	0.9856	0.9804	0.9744
50	0.9676	0.9600	0.9516	0.9424	0.9324	0.9216
50	0.9100	0.8976	0.8844	0.8704	0.8556	0.8400
50	0.8236	0.8064	0.7884	0.7696	0.7500	0.7296
50	0.7084	0.6864	0.6636	0.6400	0.6156	0.5904
50	0.5644	0.5376	0.5100	0.4816	0.4524	0.4224
50	0.3916	0.3600	0.3276	0.2944	0.2604	0.2256
50	0.1900	0.1536	0.1164	0.0784	0.0396	0
50	0	0	0	0	0	0
50	0	0	0	0	0	0
50	0	0	0	0	0	0
50	0	0	0	0	0	0
50	0	0	0	0	0	0
50	0	0	0	0	0	0
50	0	0	0	0	0	0
50	0	0	0	0	0	0
50	0	0	0	0	0	0
50	0	0	0	0	0	0
50	0	0	0	0	0	0
50	0	0	0	0	0	0
50	0	0	0	0	0	0
50	0	0	0	0	0	0
50	0	0	0	0	0	0
50	0	0	0	0	0	0
50	0	0	0	0	0	0
50	0	0	0	0	0	0
50	0	0	0	0	0	0
50	0	0	0	0	0	0
50	0	0	0	0	0	0
50	0	0	0	0	0	0
50	0	0	0	0	0	0
50	0	0	0	0	0	0
50	0	0	0	0	0	0
50	0	0	0	0	0	0
50	0	0	0	0	0	0
50	0	0	0	0	0	0
50	0	0	0	0	0	0
50	0	0	0	0	0	0
50	0	0	0	0	0	0
50	0	0	0	0	0	0
50	0	0	0	0	0	0
50	0	0	0	0	0	0
50	0	0	0	0	0	0
50	0	0	0	0	0	0
50	0	0	0	0	0	0
50	0	0	0	0	0	0
50	0	0	0	0	0	0
50	0	0	0	0	0	0
50	0	0	0	0	0	0
50	0	0	0	0	0	0
50	0	0	0	0	0	0
50	0	0	0	0	0	0
50	0	0	0	0	0	0
50	0	0	0	0	0	0
50	0	0	0	0	0	0
50	0	0	0	0	0	0
50	0	0	0	0	0	0
50	0	0	0	0	0	0
50	0	0	0	0	0	0
50	0	0	0	0	0	0
50	0	0	0	0	0	0
50	0	0	0	0	0	0
50	0	0	0	0	0	0
50	0	0	0	0	0	0
50	0	0	0	0	0	0
50	0	0	0	0	0	0
50	0	0	0	0	0	0
50	0	0	0	0	0	0
50	0	0	0	0	0	0
50	0	0	0	0	0	0
50	0	0	0	0	0	0
50	0	0	0	0	0	0
50	0	0	0	0	0	0
50	0	0	0	0	0	0
50	0	0	0	0	0	0
50	0	0	0	0	0	0
50	0	0	0	0	0	0
50	0	0	0	0	0	0
50	0	0	0	0	0	0
50	0	0	0	0	0	0
50	0	0	0	0	0	0
50	0	0	0	0	0	0
50	0	0	0	0	0	0
50	0	0	0	0	0	0
50	0	0	0	0	0	0
50	0	0	0	0	0	0
50	0	0	0	0	0	0
50	0	0	0	0	0	0
50	0	0	0	0	0	0
50	0	0	0	0	0	0
50	0	0	0	0	0	0
50	0	0	0	0	0	0
50	0	0	0	0	0	0
50	0	0	0	0	0	0
50	0	0	0	0	0	0
50	0	0	0	0	0	0
50	0	0	0	0	0	0
50	0	0	0	0	0	0
50	0	0	0	0	0	0
50	0	0	0	0	0	0
50	0	0	0	0	0	0
50	0	0	0	0	0	0
50	0	0	0	0	0	0
50	0	0	0	0	0	0
50	0	0	0	0	0	0
50	0	0	0	0	0	0
50	0	0	0	0	0	0
50	0	0	0	0	0	0
50	0	0	0	0	0	0
50	0	0	0	0	0	0
50	0	0	0	0	0	0
50	0	0	0	0	0	0
50	0	0	0	0	0	0
50	0	0	0	0	0	0
50	0	0	0	0	0	0
50	0	0	0	0	0	0
50	0	0	0	0	0	0
50	0	0	0	0	0	0
50	0	0	0	0	0	0
50	0	0	0	0	0	0
50	0	0	0	0	0	0
50	0	0	0	0	0	0
50	0	0	0	0	0	0
50	0	0	0	0	0	0
50	0	0	0	0	0	0
50	0	0	0	0	0	0
50	0	0	0	0	0	0
50	0	0	0	0	0	0
50	0	0	0	0	0	0
50	0	0	0	0	0	0
50	0	0	0	0	0	0
50	0	0	0	0	0	0
50	0	0	0	0	0	0
50	0	0	0	0	0	0
50	0	0	0	0	0	0
50	0	0	0	0	0	0
50	0	0	0	0	0	0
50	0	0	0	0	0	0
50	0	0	0	0	0	0
50	0	0	0	0	0	0
50	0	0	0	0	0	0
50	0	0	0	0	0	0
50	0	0	0	0	0	0
50	0	0	0	0	0	0
50	0	0	0	0	0	0
50	0	0	0	0	0	0
50	0	0	0	0	0	0
50	0	0	0	0	0	0


100	1	1	1	1	1	1
100	1	1	1	1	0.9999	0.9996
100	0.9991	0.9984	0.9975	0.9964	0.9951	0.9936
100	0.9919	0.9900	0.9879	0.9856	0.9831	0.9804
100	0.9775	0.9744	0.9711	0.9676	0.9639	0.9600
100	0.9559	0.9516	0.9471	0.9424	0.9375	0.9324
100	0.9271	0.9216	0.9159	0.9100	0.9039	0.8976
100	0.8911	0.8844	0.8775	0.8704	0.8631	0.8556
100	0.8479	0.8400	0.8319	0.8236	0.8151	0.8064
100	0.7975	0.7884	0.7791	0.7696	0.7599	0.7500
100	0.7399	0.7296	0.7191	0.7084	0.6975	0.6864
100	0.6751	0.6636	0.6519	0.6400	0.6279	0.6156
100	0.6031	0.5904	0.5775	0.5644	0.5511	0.5376
100	0.5239	0.5100	0.4959	0.4816	0.4671	0.4524
100	0.4375	0.4224	0.4071	0.3916	0.3759	0.3600
100	0.3439	0.3276	0.3111	0.2944	0.2775	0.2604
100	0.2431	0.2256	0.2079	0.1900	0.1719	0.1536
100	0.1351	0.1164	0.0975	0.0784	0.0591	0.0396
100	0.0199	0.0000	1	0	0	0
100	0	0	0	0	0	0
100	0	0	0	0	0	0
100	0	0	0	0	0	0
100	0	0	0	0	0	0
100	0	0	0	0	0	0
100	0	0	0	0	0	0
100	0	0	0	0	0	0
100	0	0	0	0	0	0
100	0	0	0	0	0	0
100	0	0	0	0	0	0
100	0	0	0	0	0	0
100	0	0	0	0	0	0
100	0	0	0	0	0	0
100	0	0	0	0	0	0
100	0	0	0	0	0	0
100	0	0	0	0	0	0
100	0	0	0	0	0	0
100	0	0	0	0	0	0
100	0	0	0	0	0	0
100	0	0	0	0	0	0
100	0	0	0	0	0	0
100	0	0	0	0	0	0
100	0	0	0	0	0	0
100	0	0	0	0	0	0
100	0	0	0	0	0	0
100	0	0	0	0	0	0
100	0	0	0	0	0	0
100	0	0	0	0	0	0
100	0	0	0	0	0	0
100	0	0	0	0	0	0
100	0	0	0	0	0	0
100	0	0	0	0	0	0
100	0	0	0	0	0	0
100	0	0	0	0	0	0
100	0	0	0	0	0	0
100	0	0	0	0	0	0
100	0	0	0	0	0	0
100	0	0	0	0	0	0
100	0	0	0	0	0	0
100	0	0	0	0	0	0
100	0	0	0	0	0	0
100	0	0	0	0	0	0
100	0	0	0	0	0	0
100	0	0	0	0	0	0
100	0	0	0	0	0	0
100	0	0	0	0	0	0
100	0	0	0	0	0	0
100	0	0	0	0	0	0
100	0	0	0	0	0	0
100	0	0	0	0	0	0
100	0	0	0	0	0	0
100	0	0	0	0	0	0
100	0	0	0	0	0	0
100	0	0	0	0	0	0
100	0	0	0	0	0	0
100	0	0	0	0	0	0
100	0	0	0	0	0	0
100	0	0	0	0	0	0
100	0	0	0	0	0	0
100	0	0	0	0	0	0
100	0	0	0	0	0	0
100	0	0	0	0	0	0
100	0	0	0	0	0	0
100	0	0	0	0	0	0
100	0	0	0	0	0	0
100	0	0	0	0	0	0
100	0	0	0	0	0	0
100	0	0	0	0	0	0
100	0	0	0	0	0	0
100	0	0	0	0	0	0
100	0	0	0	0	0	0
100	0	0	0	0	0	0
100	0	0	0	0	0	0
100	0	0	0	0	0	0
100	0	0	0	0	0	0
100	0	0	0	0	0	0
100	0	0	0	0	0	0
100	0	0	0	0	0	0
100	0	0	0	0	0	0
100	0	0	0	0	0	0
100	0	0	0	0	0	0
100	0	0	0	0	0	0
100	0	0	0	0	0	0
100	0	0	0	0	0	0
100	0	0	0	0	0	0
100	0	0	0	0	0	0
100	0	0	0	0	0	0
100	0	0	0	0	0	0
100	0	0	0	0	0	0
100	0	0	0	0	0	0
100	0	0	0	0	0	0
100	0	0	0	0	0	0
100	0	0	0	0	0	0
100	0	0	0	0	0	0
100	0	0	0	0	0	0
100	0	0	0	0	0	0
100	0	0	0	0	0	0
100	0	0	0	0	0	0
100	0	0	0	0	0	0
100	0	0	0	0	0	0
100	0	0	0	0	0	0
100	0	0	0	0	0	0
100	0	0	0	0	0	0
100	0	0	0	0	0	0
100	0	0	0	0	0	0
100	0	0	0	0	0	0
100	0	0	0	0	0	0
100	0	0	0	0	0	0
100	0	0	0	0	0	0
100	0	0	0	0	0	0
100	0	0	0	0	0	0
100	0	0	0	0	0	0
100	0	0	0	0	0	0
100	0	0	0	0	0	0
100	0	0	0	0	0	0
100	0	0	0	0	0	0
100	0	0	0	0	0	0
100	0	0	0	0	0	0
100	0	0	0	0	0	0
100	0	0	0	0	0	0
100	0	0	0	0	0	0
100	0	0	0	0	0	0
100	0	0	0	0	0	0
100	0	0	0	0	0	0
100	0	0	0	0	0	0
100	0	0	0	0	0	0
100	0	0	0	0	0	0
100	0	0	0	0	0	0
100	0	0	0	0	0	0
100	0	0	0	0	0	0
100	0	0	0	0	0	0


200	1	1	1	1	1	1
200	1	1	1	1	0.999975	0.9999
200	0.999775	0.999600	0.999375	0.999100	0.998775	0.998400
200	0.997975	0.997500	0.996975	0.996400	0.995775	0.995100
200	0.994375	0.993600	0.992775	0.991900	0.990975	0.990000
200	0.988975	0.987900	0.986775	0.985600	0.984375	0.983100
200	0.981775	0.980400	0.978975	0.977500	0.975975	0.974400
200	0.972775	0.971100	0.969375	0.967600	0.965775	0.963900
200	0.961975	0.960000	0.957975	0.955900	0.953775	0.951600
200	0.949375	0.947100	0.944775	0.942400	0.939975	0.937500
200	0.934975	0.932400	0.929775	0.927100	0.924375	0.921600
200	0.918775	0.915900	0.912975	0.910000	0.906975	0.903900
200	0.900775	0.897600	0.894375	0.891100	0.887775	0.884400
200	0.880975	0.877500	0.873975	0.870400	0.866775	0.863100
200	0.859375	0.855600	0.851775	0.847900	0.843975	0.840000
200	0.835975	0.831900	0.827775	0.823600	0.819375	0.815100
200	0.810775	0.806400	0.801975	0.797500	0.792975	0.788400
200	0.783775	0.779100	0.774375	0.769600	0.764775	0.759900
200	0.754975	0.750000	0.744975	0.739900	0.734775	0.729600
200	0.724375	0.719100	0.713775	0.708400	0.702975	0.697500
200	0.691975	0.686400	0.680775	0.675100	0.669375	0.663600
200	0.657775	0.651900	0.645975	0.640000	0.633975	0.627900
200	0.621775	0.615600	0.609375	0.603100	0.596775	0.590400
200	0.583975	0.577500	0.570975	0.564400	0.557775	0.551100
200	0.544375	0.537600	0.530775	0.523900	0.516975	0.510000
200	0.502975	0.495900	0.488775	0.481600	0.474375	0.467100
200	0.459775	0.452400	0.444975	0.437500	0.429975	0.422400
200	0.414775	0.407100	0.399375	0.391600	0.383775	0.375900
200	0.367975	0.360000	0.351975	0.343900	0.335775	0.327600
200	0.319375	0.311100	0.302775	0.294400	0.285975	0.277500
200	0.268975	0.260400	0.251775	0.243100	0.234375	0.225600
200	0.216775	0.207900	0.198975	0.190000	0.180975	0.171900
200	0.162775	0.153600	0.144375	0.135100	0.125775	0.116400
200	0.106975	0.097500	0.087975	0.078400	0.068775	0.059100
200	0.049375	0.039600	0.029775	0.019900	0.009975	0
200	0	0	0	0	0	0
200	0	0	0	0	0	0
200	0	0	0	0	0	0
200	0	0	0	0	0	0
200	0	0	0	0	0	0
200	0	0	0	0	0	0
200	0	0	0	0	0	0
200	0	0	0	0	0	0
200	0	0	0	0	0	0
200	0	0	0	0	0	0
200	0	0	0	0	0	0
200	0	0	0	0	0	0
200	0	0	0	0	0	0
200	0	0	0	0	0	0
200	0	0	0	0	0	0
200	0	0	0	0	0	0
200	0	0	0	0	0	0
200	0	0	0	0	0	0
200	0	0	0	0	0	0
200	0	0	0	0	0	0
200	0	0	0	0	0	0
200	0	0	0	0	0	0
200	0	0	0	0	0	0
200	0	0	0	0	0	0
200	0	0	0	0	0	0
200	0	0	0	0	0	0
200	0	0	0	0	0	0
200	0	0	0	0	0	0
200	0	0	0	0	0	0
200	0	0	0	0	0	0
200	0	0	0	0	0	0
200	0	0	0	0	0	0
200	0	0	0	0	0	0
200	0	0	0	0	0	0
200	0	0	0	0	0	0
200	0	0	0	0	0	0
200	0	0	0	0	0	0
200	0	0	0	0	0	0
200	0	0	0	0	0	0
200	0	0	0	0	0	0
200	0	0	0	0	0	0
200	0	0	0	0	0	0
200	0	0	0	0	0	0
200	0	0	0	0	0	0
200	0	0	0	0	0	0
200	0	0	0	0	0	0
200	0	0	0	0	0	0
200	0	0	0	0	0	0
200	0	0	0	0	0	0
200	0	0	0	0	0	0
200	0	0	0	0	0	0
200	0	0	0	0	0	0
200	0	0	0	0	0	0
200	0	0	0	0	0	0
200	0	0	0	0	0	0
200	0	0	0	0	0	0
200	0	0	0	0	0	0
200	0	0	0	0	0	0
200	0	0	0	0	0	0
200	0	0	0	0	0	0
200	0	0	0	0	0	0
200	0	0	0	0	0	0
200	0	0	0	0	0	0
200	0	0	0	0	0	0
200	0	0	0	0	0	0
200	0	0	0	0	0	0
200	0	0	0	0	0	0
200	0	0	0	0	0	0
200	0	0	0	0	0	0
200	0	0	0	0	0	0
200	0	0	0	0	0	0
200	0	0	0	0	0	0
200	0	0	0	0	0	0
200	0	0	0	0	0	0
200	0	0	0	0	0	0
200	0	0	0	0	0	0
200	0	0	0	0	0	0
200	0	0	0	0	0	0
200	0	0	0	0	0	0
200	0	0	0	0	0	0
200	0	0	0	0	0	0
200	0	0	0	0	0	0
200	0	0	0	0	0	0
200	0	0	0	0	0	0
200	0	0	0	0	0	0
200	0	0	0	0	0	0
200	0	0	0	0	0	0
200	0	0	0	0	0	0
200	0	0	0	0	0	0
200	0	0	0	0	0	0
200	0	0	0	0	0	0
200	0	0	0	0	0	0
200	0	0	0	0	0	0
200	0	0	0	0	0	0
200	0	0	0	0	0	0
200	0	0	0	0	0	0
200	0	0	0	0	0	0
200	0	0	0	0	0	0
200	0	0	0	0	0	0
200	0	0	0	0	0	0
200	0	0	0	0	0	0
200	0	0	0	0	0	0
200	0	0	0	0	0	0
200	0	0	0	0	0	0
200	0	0	0	0	0	0
200	0	0	0	0	0	0
200	0	0	0	0	0	0
200	0	0	0	0	0	0
200	0	0	0	0	0	0
200	0	0	0	0	0	0
200	0	0	0	0	0	0
200	0	0	0	0	0	0
200	0	0	0	0	0	0
200	0	0	0	0	0	0
200	0	0	0	0	0	0


400	1	1	1	1	1	1
400	1	1	1	1	0.99999375	0.99997500
400	0.99994375	0.99990000	0.99984375	0.99977500	0.99969375	0.99960000
400	0.99949375	0.99937500	0.99924375	0.99910000	0.99894375	0.99877500
400	0.99859375	0.99840000	0.99819375	0.99797500	0.99774375	0.99750000
400	0.99724375	0.99697500	0.99669375	0.99640000	0.99609375	0.99577500
400	0.99544375	0.99510000	0.99474375	0.99437500	0.99399375	0.99360000
400	0.99319375	0.99277500	0.99234375	0.99190000	0.99144375	0.99097500
400	0.99049375	0.99000000	0.98949375	0.98897500	0.98844375	0.98790000
400	0.98734375	0.98677500	0.98619375	0.98560000	0.98499375	0.98437500
400	0.98374375	0.98310000	0.98244375	0.98177500	0.98109375	0.98040000
400	0.97969375	0.97897500	0.97824375	0.97750000	0.97674375	0.97597500
400	0.97519375	0.97440000	0.97359375	0.97277500	0.97194375	0.97110000
400	0.97024375	0.96937500	0.96849375	0.96760000	0.96669375	0.96577500
400	0.96484375	0.96390000	0.96294375	0.96197500	0.96099375	0.96000000
400	0.95899375	0.95797500	0.95694375	0.95590000	0.95484375	0.95377500
400	0.95269375	0.95160000	0.95049375	0.94937500	0.94824375	0.94710000
400	0.94594375	0.94477500	0.94359375	0.94240000	0.94119375	0.93997500
400	0.93874375	0.93750000	0.93624375	0.93497500	0.93369375	0.93240000
400	0.93109375	0.92977500	0.92844375	0.92710000	0.92574375	0.92437500
400	0.92299375	0.92160000	0.92019375	0.91877500	0.91734375	0.91590000
400	0.91444375	0.91297500	0.91149375	0.91000000	0.90849375	0.90697500
400	0.90544375	0.90390000	0.90234375	0.90077500	0.89919375	0.89760000
400	0.89599375	0.89437500	0.89274375	0.89110000	0.88944375	0.88777500
400	0.88609375	0.88440000	0.88269375	0.88097500	0.87924375	0.87750000
400	0.87574375	0.87397500	0.87219375	0.87040000	0.86859375	0.86677500
400	0.86494375	0.86310000	0.86124375	0.85937500	0.85749375	0.85560000
400	0.85369375	0.85177500	0.84984375	0.84790000	0.84594375	0.84397500
400	0.84199375	0.84000000	0.83799375	0.83597500	0.83394375	0.83190000
400	0.82984375	0.82777500	0.82569375	0.82360000	0.82149375	0.81937500
400	0.81724375	0.81510000	0.81294375	0.81077500	0.80859375	0.80640000
400	0.80419375	0.80197500	0.79974375	0.79750000	0.79524375	0.79297500
400	0.79069375	0.78840000	0.78609375	0.78377500	0.78144375	0.77910000
400	0.77674375	0.77437500	0.77199375	0.76960000	0.76719375	0.76477500
400	0.76234375	0.75990000	0.75744375	0.75497500	0.75249375	0.75000000
400	0.74749375	0.74497500	0.74244375	0.73990000	0.73734375	0.73477500
400	0.73219375	0.72960000	0.72699375	0.72437500	0.72174375	0.71910000
400	0.71644375	0.71377500	0.71109375	0.70840000	0.70569375	0.70297500
400	0.70024375	0.69750000	0.69474375	0.69197500	0.68919375	0.68640000
400	0.68359375	0.68077500	0.67794375	0.67510000	0.67224375	0.66937500
400	0.66649375	0.66360000	0.66069375	0.65777500	0.65484375	0.65190000
400	0.64894375	0.64597500	0.64299375	0.64000000	0.63699375	0.63397500
400	0.63094375	0.62790000	0.62484375	0.62177500	0.61869375	0.61560000
400	0.61249375	0.60937500	0.60624375	0.60310000	0.59994375	0.59677500
400	0.59359375	0.59040000	0.58719375	0.58397500	0.58074375	0.57750000
400	0.57424375	0.57097500	0.56769375	0.56440000	0.56109375	0.55777500
400	0.55444375	0.55110000	0.54774375	0.54437500	0.54099375	0.53760000
400	0.53419375	0.53077500	0.52734375	0.52390000	0.52044375	0.51697500
400	0.51349375	0.51000000	0.50649375	0.50297500	0.49944375	0.49590000
400	0.49234375	0.48877500	0.48519375	0.48160000	0.47799375	0.47437500
400	0.47074375	0.46710000	0.46344375	0.45977500	0.45609375	0.45240000
400	0.44869375	0.44497500	0.44124375	0.43750000	0.43374375	0.42997500
400	0.42619375	0.42240000	0.41859375	0.41477500	0.41094375	0.40710000
400	0.40324375	0.39937500	0.39549375	0.39160000	0.38769375	0.38377500
400	0.37984375	0.37590000	0.37194375	0.36797500	0.36399375	0.36000000
400	0.35599375	0.35197500	0.34794375	0.34390000	0.33984375	0.33577500
400	0.33169375	0.32760000	0.32349375	0.31937500	0.31524375	0.31110000
400	0.30694375	0.30277500	0.29859375	0.29440000	0.29019375	0.28597500
400	0.28174375	0.27750000	0.27324375	0.26897500	0.26469375	0.26040000
400	0.25609375	0.25177500	0.24744375	0.24310000	0.23874375	0.23437500
400	0.22999375	0.22560000	0.22119375	0.21677500	0.21234375	0.20790000
400	0.20344375	0.19897500	0.19449375	0.19000000	0.18549375	0.18097500
400	0.17644375	0.17190000	0.16734375	0.16277500	0.15819375	0.15360000
400	0.14899375	0.14437500	0.13974375	0.13510000	0.13044375	0.12577500
400	0.12109375	0.11640000	0.11169375	0.10697500	0.10224375	0.09750000
400	0.09274375	0.08797500	0.08319375	0.07840000	0.07359375	0.06877500
400	0.06394375	0.05910000	0.05424375	0.04937500	0.04449375	0.03960000
400	0.03469375	0.02977500	0.02484375	0.01990000	0.01494375	0.00997500
400	0.00499375	0	0	0	0	0
400	0	0	0	0	0	0
400	0	0	0	0	0	0
400	0	0	0	0	0	0
400	0	0	0	0	0	0
400	0	0	0	0	0	0
400	0	0	0	0	0	0
400	0	0	0	0	0	0
400	0	0	0	0	0	0
400	0	0	0	0	0	0
400	0	0	0	0	0	0
400	0	0	0	0	0	0
400	0	0	0	0	0	0
400	0	0	0	0	0	0
400	0	0	0	0	0	0
400	0	0	0	0	0	0
400	0	0	0	0	0	0
400	0	0	0	0	0	0
400	0	0	0	0	0	0
400	0	0	0	0	0	0
400	0	0	0	0	0	0
400	0	0	0	0	0	0
400	0	0	0	0	0	0
400	0	0	0	0	0	0
400	0	0	0	0	0	0
400	0	0	0	0	0	0
400	0	0	0	0	0	0
400	0	0	0	0	0	0
400	0	0	0	0	0	0
400	0	0	0	0	0	0
400	0	0	0	0	0	0
400	0	0	0	0	0	0
400	0	0	0	0	0	0
400	0	0	0	0	0	0
400	0	0	0	0	0	0
400	0	0	0	0	0	0
400	0	0	0	0	0	0
400	0	0	0	0	0	0
400	0	0	0	0	0	0
400	0	0	0	0	0	0
400	0	0	0	0	0	0
400	0	0	0	0	0	0
400	0	0	0	0	0	0
400	0	0	0	0	0	0
400	0	0	0	0	0	0
400	0	0	0	0	0	0
400	0	0	0	0	0	0
400	0	0	0	0	0	0
400	0	0	0	0	0	0
400	0	0	0	0	0	0
400	0	0	0	0	0	0
400	0	0	0	0	0	0
400	0	0	0	0	0	0
400	0	0	0	0	0	0
400	0	0	0	0	0	0
400	0	0	0	0	0	0
400	0	0	0	0	0	0
400	0	0	0	0	0	0
400	0	0	0	0	0	0
400	0	0	0	0	0	0
400	0	0	0	0	0	0
400	0	0	0	0	0	0
400	0	0	0	0	0	0
400	0	0	0	0	0	0
400	0	0	0	0	0	0
400	0	0	0	0	0	0
400	0	0	0	0	0	0
400	0	0	0	0	0	0
400	0	0	0	0	0	0
400	0	0	0	0	0	0
400	0	0	0	0	0	0
400	0	0	0	0	0	0
400	0	0	0	0	0	0
400	0	0	0	0	0	0
400	0	0	0	0	0	0
400	0	0	0	0	0	0
400	0	0	0	0	0	0
400	0	0	0	0	0	0
400	0	0	0	0	0	0
400	0	0	0	0	0	0
400	0	0	0	0	0	0
400	0	0	0	0	0	0




[CURVES]
;ID              	X-Value     	Y-Value

[CONTROLS]



[RULES]



[ENERGY]
 Global Efficiency  	75
 Global Price       	0
 Demand Charge      	0

[EMITTERS]
;Junction        	Coefficient

[QUALITY]
;Node            	InitQual

[SOURCES]
;Node            	Type        	Quality     	Pattern

[REACTIONS]
;Type     	Pipe/Tank       	Coefficient


[REACTIONS]
 Order Bulk            	1
 Order Tank            	1
 Order Wall            	1
 Global Bulk           	0
 Global Wall           	0
 Limiting Potential    	0
 Roughness Correlation 	0

[MIXING]
;Tank            	Model

[TIMES]
 Duration           	0:09 
 Hydraulic Timestep 	0:00:05 
 Quality Timestep   	0:05 
 Pattern Timestep   	0:00:01 
 Pattern Start      	0:00 
 Report Timestep    	1:00 
 Report Start       	0:00 
 Start ClockTime    	12 am
 Statistic          	NONE

[REPORT]
 Status             	Full
 Trials                 Yes
 Summary            	Yes
 Page               	0
 Nodes                  All
 Links                  All 

[OPTIONS]
 Flow_Units              	LPS
 Pressure_Units             METERS
 Headloss_Model           	D-W
 Specific_Gravity       	1
 Specific_Viscosity         1
 Maximum_Trials            	33
 Relative_Accuracy      	0.001
 Unbalanced              	Continue
 Demand_Pattern            	1
 Demand_Multiplier      	1.0
 Emitter_Exponent       	0.5
 Quality_Model            	None mg/L
 Specific_Diffusivity      	1
 Quality_Tolerance        	0.001
 Head_Tolerance             0.001
 Flow_Tolerance             0.001
 Flow_Change_Limit          0.001
 Step_Sizing                FULL
 VALVE_REP_TYPE             Toe
 Demand_Model               LOGISTIC
 MINIMUM_PRESSURE           0
 SERVICE_PRESSURE           177
 PRESSURE_EXPONENT          0.5
 Hyd_Solver                 CGGA
 Time_Weight                0.5
 TEMP_DISC_PARA             1

[COORDINATES]
;Node            	X-Coord           	Y-Coord
N3              	87.450            	6543.210          
N2              	961.930           	5658.440          
N5              	2649.180          	5658.440          
N4              	1414.360          	6965.590          
N6              	2361.110          	6965.020          
N7              	3750.550          	5656.400          
N8              	4091.790          	5653.120          
R1              	-529.840          	7427.980          

[VERTICES]
;Link            	X-Coord           	Y-Coord

[LABELS]
;X-Coord             Y-Coord             Label & Anchor Node
-149.180          	7047.330          	"P1"	
601.850           	6944.440          	"P2"	
478.400           	6296.300          	"P3"	
1887.860          	7170.780          	"P4"	
992.800           	6522.630          	"P5"	
1774.690          	5617.280          	"P6"	
3184.160          	5607.000          	"P7"	
2582.450          	6306.080          	"P8"	
1620.370          	6584.360          	"P9"	
-632.720          	7366.260          	"R1"	
-77.160           	6481.480          	"N3"	
1404.320          	7201.650          	"N4"	
2350.820          	7160.490          	"N6"	
859.050           	5576.130          	"N2"	
2677.610          	5561.250          	"N5"	
3636.830          	5596.710          	"VALVE"	
3667.700          	5864.200          	"N7"	
4048.350          	5853.910          	"N8"	

[BACKDROP]
  DIMENSIONS  	0.000             	0.000             	10000.000         	10000.000         
 UNITS          	None
 FILE           	
 OFFSET         	0.00            	0.00            

[END]
