[TITLE]


[JUNCTIONS]
;ID              	Elev        	Demand      	Pattern         
 N3              	0           	0           	                	;
 N2              	0           	25          	                	;
 N5              	0           	0           	                	;
 N4              	0           	25          	                	;
 N6              	0           	0           	                	;
 N7              	0           	0           	                	;
 N8              	0           	100         	                	;

[RESERVOIRS]
;ID              	Head        	Pattern         
 R1              	191         	                	;

[TANKS]
;ID              	Elevation   	InitLevel   	MinLevel    	MaxLevel    	Diameter    	MinVol      	VolCurve        	Overflow
 T1              	110         	10          	0           	20          	10          	0           	                	;
 T2              	110         	10          	0           	20          	15          	0           	                	;

[PIPES]
;ID              	Node1           	Node2           	Length      	Diameter    	Roughness   	MinorLoss   	Status
 P1              	R1              	N3              	610         	900         	0.3        	0           	Open  	;
 P2              	N3              	N4              	914         	750         	0.3        	0           	Open  	;
 P3              	N3              	N2              	610         	600         	0.3        	0           	Open  	;
 P4              	N4              	N6              	457         	450         	0.3        	0           	Open  	;
 P5              	N4              	N2              	549         	450         	0.3        	0           	Open  	;
 P6              	N5              	N2              	671         	750         	0.3        	0           	Open  	;
 P7              	N5              	N7              	1000        	900         	0.3        	0           	Open  	;
 P8              	N6              	N5              	457         	600         	0.3        	0           	Open  	;
 P9              	N2              	N6              	488         	450         	0.3        	0           	Open  	;
 P10             	N6              	T1              	400        	    400          	0.3         0           	Open  	;
 P11             	N8              	T2              	400        	    400         	0.3         0           	Open  	;

[PUMPS]
;ID              	Node1           	Node2           	Parameters

[VALVES]
;ID              	Node1           	Node2           	Diameter    	Type	Setting  MinorLoss   Pattern   
 VALVE           	N7              	N8              	400         	CCV 	1       	0          400	;

[TAGS]

[DEMANDS]
;Junction        	Demand      	Pattern         	Category

[STATUS]
;ID              	Status/Setting


[PATTERNS]
;ID              	Multipliers

10	1	1	1	1	1	1
10	1	1	1	1	0.89204589	0.77748224
10	0.65855209	0.53801184	0.41913125	0.30569344	0.20199489	0.11284544
10	0.04356829	0	0	0	0	0
10	0	0	0	0	0	0
10	0	0	0	0	0	0
10	0	0	0	0	0	0
10	0	0	0	0	0	0
10	0	0	0	0	0	0
10	0	0	0	0	0	0
10	0	0	0	0	0	0
10	0	0	0	0	0	0
10	0	0	0	0	0	0
10	0	0	0	0	0	0
10	0	0	0	0	0	0
10	0	0	0	0	0	0
10	0	0	0	0	0	0
10	0	0	0	0	0	0
10	0	0	0	0	0	0
10	0	0	0	0	0	0
10	0	0	0	0	0	0
10	0	0	0	0	0	0
10	0	0	0	0	0	0
10	0	0	0	0	0	0
10	0	0	0	0	0	0
10	0	0	0	0	0	0
10	0	0	0	0	0	0
10	0	0	0	0	0	0
10	0	0	0	0	0	0
10	0	0	0	0	0	0
10	0	0	0	0	0	0
10	0	0	0	0	0	0
10	0	0	0	0	0	0
10	0	0	0	0	0	0
10	0	0	0	0	0	0
10	0	0	0	0	0	0
10	0	0	0	0	0	0
10	0	0	0	0	0	0
10	0	0	0	0	0	0
10	0	0	0	0	0	0
10	0	0	0	0	0	0
10	0	0	0	0	0	0
10	0	0	0	0	0	0
10	0	0	0	0	0	0
10	0	0	0	0	0	0
10	0	0	0	0	0	0
10	0	0	0	0	0	0
10	0	0	0	0	0	0
10	0	0	0	0	0	0
10	0	0	0	0	0	0
10	0	0	0	0	0	0
10	0	0	0	0	0	0
10	0	0	0	0	0	0
10	0	0	0	0	0	0
10	0	0	0	0	0	0
10	0	0	0	0	0	0
10	0	0	0	0	0	0
10	0	0	0	0	0	0
10	0	0	0	0	0	0
10	0	0	0	0	0	0
10	0	0	0	0	0	0
10	0	0	0	0	0	0
10	0	0	0	0	0	0
10	0	0	0	0	0	0
10	0	0	0	0	0	0
10	0	0	0	0	0	0
10	0	0	0	0	0	0
10	0	0	0	0	0	0
10	0	0	0	0	0	0
10	0	0	0	0	0	0
10	0	0	0	0	0	0
10	0	0	0	0	0	0
10	0	0	0	0	0	0
10	0	0	0	0	0	0
10	0	0	0	0	0	0
10	0	0	0	0	0	0
10	0	0	0	0	0	0
10	0	0	0	0	0	0
10	0	0	0	0	0	0
10	0	0	0	0	0	0
10	0	0	0	0	0	0
10	0	0	0	0	0	0
10	0	0	0	0	0	0
10	0	0	0	0	0	0
10	0	0	0	0	0	0
10	0	0	0	0	0	0
10	0	0	0	0	0	0
10	0	0	0	0	0	0
10	0	0	0	0	0	0
10	0	0	0	0	0	0
10	0	0	0	0	0	0
10	0	0	0	0	0	0
10	0	0	0	0	0	0
10	0	0	0	0	0	0
10	0	0	0	0	0	0
10	0	0	0	0	0	0
10	0	0	0	0	0	0
10	0	0	0	0	0	0
10	0	0	0	0	0	0
10	0	0	0	0	0	0
10	0	0	0	0	0	0
10	0	0	0	0	0	0
10	0	0	0	0	0	0
10	0	0	0	0	0	0
10	0	0	0	0	0	0
10	0	0	0	0	0	0
10	0	0	0	0	0	0
10	0	0	0	0	0	0
10	0	0	0	0	0	0
10	0	0	0	0	0	0
10	0	0	0	0	0	0
10	0	0	0	0	0	0
10	0	0	0	0	0	0
10	0	0	0	0	0	0
10	0	0	0	0	0	0
10	0	0	0	0	0	0
10	0	0	0	0	0	0
10	0	0	0	0	0	0
10	0	0	0	0	0	0
10	0	0	0	0	0	0
10	0	0	0	0	0	0
10	0	0	0	0	0	0
10	0	0	0	0	0	0
10	0	0	0	0	0	0
10	0	0	0	0	0	0
10	0	0	0	0	0	0
10	0	0	0	0	0	0
10	0	0	0	0	0	0
10	0	0	0	0	0	0
10	0	0	0	0	0	0
10	0	0	0	0	0	0
10	0	0	0	0	0	0
10	0	0	0	0	0	0
10	0	0	0	0	0	0
10	0	0	0	0	0	0
10	0	0	0	0	0	0
10	0	0	0	0	0	0
10	0	0	0	0	0	0
10	0	0	0	0	0	0
10	0	0	0	0	0	0
10	0	0	0	0	0	0
10	0	0	0	0	0	0
10	0	0	0	0	0	0
10	0	0	0	0	0	0
10	0	0	0	0	0	0
10	0	0	0	0	0	0
10	0	0	0	0	0	0
10	0	0	0	0	0	0
10	0	0	0	0	0	0
10	0	0	0	0	0	0


50	1	1	1	1	1	1
50	1	1	1	1	0.9790283582240	0.9577336995840
50	0.9361290401440	0.9142282173440	0.8920458900000	0.8695975383040	0.8468994638240	0.8239687895040
50	0.8008234596640	0.7774822400000	0.7539647175840	0.7302913008640	0.7064832196640	0.6825625251840
50	0.6585520900000	0.6344756080640	0.6103575947040	0.5862233866240	0.5620991419040	0.5380118400000
50	0.5139892817440	0.4900600893440	0.4662537063840	0.4426003978240	0.4191312500000	0.3958781706240
50	0.3728738887840	0.3501519549440	0.3277467409440	0.3056934400000	0.2840280667040	0.2627874570240
50	0.2420092683040	0.2217319792640	0.2019948900000	0.1828381219840	0.1643026180640	0.1464301424640
50	0.1292632807840	0.1128454400000	0.0972208484640	0.0824345559040	0.0685324334240	0.0555611735040
50	0.0435682900000	0.0326021181440	0.0227118145440	0.0139473571840	0.0063595454240	0
50	0	0	0	0	0	0
50	0	0	0	0	0	0
50	0	0	0	0	0	0
50	0	0	0	0	0	0
50	0	0	0	0	0	0
50	0	0	0	0	0	0
50	0	0	0	0	0	0
50	0	0	0	0	0	0
50	0	0	0	0	0	0
50	0	0	0	0	0	0
50	0	0	0	0	0	0
50	0	0	0	0	0	0
50	0	0	0	0	0	0
50	0	0	0	0	0	0
50	0	0	0	0	0	0
50	0	0	0	0	0	0
50	0	0	0	0	0	0
50	0	0	0	0	0	0
50	0	0	0	0	0	0
50	0	0	0	0	0	0
50	0	0	0	0	0	0
50	0	0	0	0	0	0
50	0	0	0	0	0	0
50	0	0	0	0	0	0
50	0	0	0	0	0	0
50	0	0	0	0	0	0
50	0	0	0	0	0	0
50	0	0	0	0	0	0
50	0	0	0	0	0	0
50	0	0	0	0	0	0
50	0	0	0	0	0	0
50	0	0	0	0	0	0
50	0	0	0	0	0	0
50	0	0	0	0	0	0
50	0	0	0	0	0	0
50	0	0	0	0	0	0
50	0	0	0	0	0	0
50	0	0	0	0	0	0
50	0	0	0	0	0	0
50	0	0	0	0	0	0
50	0	0	0	0	0	0
50	0	0	0	0	0	0
50	0	0	0	0	0	0
50	0	0	0	0	0	0
50	0	0	0	0	0	0
50	0	0	0	0	0	0
50	0	0	0	0	0	0
50	0	0	0	0	0	0
50	0	0	0	0	0	0
50	0	0	0	0	0	0
50	0	0	0	0	0	0
50	0	0	0	0	0	0
50	0	0	0	0	0	0
50	0	0	0	0	0	0
50	0	0	0	0	0	0
50	0	0	0	0	0	0
50	0	0	0	0	0	0
50	0	0	0	0	0	0
50	0	0	0	0	0	0
50	0	0	0	0	0	0
50	0	0	0	0	0	0
50	0	0	0	0	0	0
50	0	0	0	0	0	0
50	0	0	0	0	0	0
50	0	0	0	0	0	0
50	0	0	0	0	0	0
50	0	0	0	0	0	0
50	0	0	0	0	0	0
50	0	0	0	0	0	0
50	0	0	0	0	0	0
50	0	0	0	0	0	0
50	0	0	0	0	0	0
50	0	0	0	0	0	0
50	0	0	0	0	0	0
50	0	0	0	0	0	0
50	0	0	0	0	0	0
50	0	0	0	0	0	0
50	0	0	0	0	0	0
50	0	0	0	0	0	0
50	0	0	0	0	0	0
50	0	0	0	0	0	0
50	0	0	0	0	0	0
50	0	0	0	0	0	0
50	0	0	0	0	0	0
50	0	0	0	0	0	0
50	0	0	0	0	0	0
50	0	0	0	0	0	0
50	0	0	0	0	0	0
50	0	0	0	0	0	0
50	0	0	0	0	0	0
50	0	0	0	0	0	0
50	0	0	0	0	0	0
50	0	0	0	0	0	0
50	0	0	0	0	0	0
50	0	0	0	0	0	0
50	0	0	0	0	0	0
50	0	0	0	0	0	0
50	0	0	0	0	0	0
50	0	0	0	0	0	0
50	0	0	0	0	0	0
50	0	0	0	0	0	0
50	0	0	0	0	0	0
50	0	0	0	0	0	0
50	0	0	0	0	0	0
50	0	0	0	0	0	0
50	0	0	0	0	0	0
50	0	0	0	0	0	0
50	0	0	0	0	0	0
50	0	0	0	0	0	0
50	0	0	0	0	0	0
50	0	0	0	0	0	0
50	0	0	0	0	0	0
50	0	0	0	0	0	0
50	0	0	0	0	0	0
50	0	0	0	0	0	0
50	0	0	0	0	0	0
50	0	0	0	0	0	0
50	0	0	0	0	0	0
50	0	0	0	0	0	0
50	0	0	0	0	0	0
50	0	0	0	0	0	0
50	0	0	0	0	0	0
50	0	0	0	0	0	0
50	0	0	0	0	0	0
50	0	0	0	0	0	0
50	0	0	0	0	0	0
50	0	0	0	0	0	0
50	0	0	0	0	0	0
50	0	0	0	0	0	0
50	0	0	0	0	0	0
50	0	0	0	0	0	0
50	0	0	0	0	0	0
50	0	0	0	0	0	0
50	0	0	0	0	0	0
50	0	0	0	0	0	0
50	0	0	0	0	0	0
50	0	0	0	0	0	0
50	0	0	0	0	0	0
50	0	0	0	0	0	0
50	0	0	0	0	0	0


100	1	1	1	1	1	1
100	1	1	1	1	0.98955533763900	0.97902835822400
100	0.9684206117590	0.9577336995840	0.9469692743750	0.9361290401440	0.9252147522390	0.9142282173440
100	0.9031712934790	0.8920458900000	0.8808539675990	0.8695975383040	0.8582786654790	0.8468994638240
100	0.8354620993750	0.8239687895040	0.8124218029190	0.8008234596640	0.7891761311190	0.7774822400000
100	0.7657442603590	0.7539647175840	0.7421461883990	0.7302913008640	0.7184027343750	0.7064832196640
100	0.6945355387990	0.6825625251840	0.6705670635590	0.6585520900000	0.6465205919190	0.6344756080640
100	0.6224202285190	0.6103575947040	0.5982908993750	0.5862233866240	0.5741583518790	0.5620991419040
100	0.5500491547990	0.5380118400000	0.5259906982790	0.5139892817440	0.5020111938390	0.4900600893440
100	0.4781396743750	0.4662537063840	0.4544059941590	0.4426003978240	0.4308408288390	0.4191312500000
100	0.4074756754390	0.3958781706240	0.3843428523590	0.3728738887840	0.3614754993750	0.3501519549440
100	0.3389075776390	0.3277467409440	0.3166738696790	0.3056934400000	0.2948099793990	0.2840280667040
100	0.2733523320790	0.2627874570240	0.2523381743750	0.2420092683040	0.2318055743190	0.2217319792640
100	0.2117934213190	0.2019948900000	0.1923414261590	0.1828381219840	0.1734901209990	0.1643026180640
100	0.1552808593750	0.1464301424640	0.1377558161990	0.1292632807840	0.1209579877590	0.1128454400000
100	0.1049311917190	0.0972208484640	0.0897200671190	0.0824345559040	0.0753700743750	0.0685324334240
100	0.06192749527900	0.05556117350400	0.0494394329990	0.0435682900000	0.0379538120790	0.0326021181440
100	0.02751937843900	0.02271181454400	0.0181856993750	0.0139473571840	0.0100031635590	0.0063595454240
100	0.00302298103900	0	0	0	0	0
100	0	0	0	0	0	0
100	0	0	0	0	0	0
100	0	0	0	0	0	0
100	0	0	0	0	0	0
100	0	0	0	0	0	0
100	0	0	0	0	0	0
100	0	0	0	0	0	0
100	0	0	0	0	0	0
100	0	0	0	0	0	0
100	0	0	0	0	0	0
100	0	0	0	0	0	0
100	0	0	0	0	0	0
100	0	0	0	0	0	0
100	0	0	0	0	0	0
100	0	0	0	0	0	0
100	0	0	0	0	0	0
100	0	0	0	0	0	0
100	0	0	0	0	0	0
100	0	0	0	0	0	0
100	0	0	0	0	0	0
100	0	0	0	0	0	0
100	0	0	0	0	0	0
100	0	0	0	0	0	0
100	0	0	0	0	0	0
100	0	0	0	0	0	0
100	0	0	0	0	0	0
100	0	0	0	0	0	0
100	0	0	0	0	0	0
100	0	0	0	0	0	0
100	0	0	0	0	0	0
100	0	0	0	0	0	0
100	0	0	0	0	0	0
100	0	0	0	0	0	0
100	0	0	0	0	0	0
100	0	0	0	0	0	0
100	0	0	0	0	0	0
100	0	0	0	0	0	0
100	0	0	0	0	0	0
100	0	0	0	0	0	0
100	0	0	0	0	0	0
100	0	0	0	0	0	0
100	0	0	0	0	0	0
100	0	0	0	0	0	0
100	0	0	0	0	0	0
100	0	0	0	0	0	0
100	0	0	0	0	0	0
100	0	0	0	0	0	0
100	0	0	0	0	0	0
100	0	0	0	0	0	0
100	0	0	0	0	0	0
100	0	0	0	0	0	0
100	0	0	0	0	0	0
100	0	0	0	0	0	0
100	0	0	0	0	0	0
100	0	0	0	0	0	0
100	0	0	0	0	0	0
100	0	0	0	0	0	0
100	0	0	0	0	0	0
100	0	0	0	0	0	0
100	0	0	0	0	0	0
100	0	0	0	0	0	0
100	0	0	0	0	0	0
100	0	0	0	0	0	0
100	0	0	0	0	0	0
100	0	0	0	0	0	0
100	0	0	0	0	0	0
100	0	0	0	0	0	0
100	0	0	0	0	0	0
100	0	0	0	0	0	0
100	0	0	0	0	0	0
100	0	0	0	0	0	0
100	0	0	0	0	0	0
100	0	0	0	0	0	0
100	0	0	0	0	0	0
100	0	0	0	0	0	0
100	0	0	0	0	0	0
100	0	0	0	0	0	0
100	0	0	0	0	0	0
100	0	0	0	0	0	0
100	0	0	0	0	0	0
100	0	0	0	0	0	0
100	0	0	0	0	0	0
100	0	0	0	0	0	0
100	0	0	0	0	0	0
100	0	0	0	0	0	0
100	0	0	0	0	0	0
100	0	0	0	0	0	0
100	0	0	0	0	0	0
100	0	0	0	0	0	0
100	0	0	0	0	0	0
100	0	0	0	0	0	0
100	0	0	0	0	0	0
100	0	0	0	0	0	0
100	0	0	0	0	0	0
100	0	0	0	0	0	0
100	0	0	0	0	0	0
100	0	0	0	0	0	0
100	0	0	0	0	0	0
100	0	0	0	0	0	0
100	0	0	0	0	0	0
100	0	0	0	0	0	0
100	0	0	0	0	0	0
100	0	0	0	0	0	0
100	0	0	0	0	0	0
100	0	0	0	0	0	0
100	0	0	0	0	0	0
100	0	0	0	0	0	0
100	0	0	0	0	0	0
100	0	0	0	0	0	0
100	0	0	0	0	0	0
100	0	0	0	0	0	0
100	0	0	0	0	0	0
100	0	0	0	0	0	0
100	0	0	0	0	0	0
100	0	0	0	0	0	0
100	0	0	0	0	0	0
100	0	0	0	0	0	0
100	0	0	0	0	0	0
100	0	0	0	0	0	0
100	0	0	0	0	0	0
100	0	0	0	0	0	0
100	0	0	0	0	0	0
100	0	0	0	0	0	0
100	0	0	0	0	0	0
100	0	0	0	0	0	0
100	0	0	0	0	0	0
100	0	0	0	0	0	0
100	0	0	0	0	0	0
100	0	0	0	0	0	0
100	0	0	0	0	0	0
100	0	0	0	0	0	0


200	1	1	1	1	1	1
200	1	1	1	1	0.9947880533211870	0.9895553376390000
200	0.9843020418911880	0.9790283582240000	0.9737344819921870	0.9684206117590000	0.9630869492961880	0.9577336995840000
200	0.9523610708111870	0.9469692743750000	0.9415585248811880	0.9361290401440000	0.9306810411861880	0.9252147522390000
200	0.9197304007421870	0.9142282173440000	0.9087084359011870	0.9031712934790000	0.8976170303511870	0.8920458900000000
200	0.8864581191161870	0.8808539675990000	0.8752336885561870	0.8695975383040000	0.8639457763671880	0.8582786654790000
200	0.8525964715811870	0.8468994638240000	0.8411879145661870	0.8354620993750000	0.8297222970261870	0.8239687895040000
200	0.8182018620011870	0.8124218029190000	0.8066289038671870	0.8008234596640000	0.7950057683361870	0.7891761311190000
200	0.7833348524561870	0.7774822400000000	0.7716186046111870	0.7657442603590000	0.7598595245211870	0.7539647175840000
200	0.7480601632421870	0.7421461883990000	0.7362231231661870	0.7302913008640000	0.7243510580211870	0.7184027343750000
200	0.7124466728711870	0.7064832196640000	0.7005127241161870	0.6945355387990000	0.6885520194921870	0.6825625251840000
200	0.6765674180711870	0.6705670635590000	0.6645618302611870	0.6585520900000000	0.6525382178061870	0.6465205919190000
200	0.6404995937861870	0.6344756080640000	0.6284490226171870	0.6224202285190000	0.6163896200511870	0.6103575947040000
200	0.6043245531761870	0.5982908993750000	0.5922570404161870	0.5862233866240000	0.5801903515311870	0.5741583518790000
200	0.5681278076171870	0.5620991419040000	0.5560727811061870	0.5500491547990000	0.5440286957661870	0.5380118400000000
200	0.5319990267011870	0.5259906982790000	0.5199873003511870	0.5139892817440000	0.5079970944921870	0.5020111938390000
200	0.4960320382361870	0.4900600893440000	0.4840958120311870	0.4781396743750000	0.4721921476611870	0.4662537063840000
200	0.4603248282461870	0.4544059941590000	0.4484976882421870	0.4426003978240000	0.4367146134411870	0.4308408288390000
200	0.4249795409711870	0.4191312500000000	0.4132964592961870	0.4074756754390000	0.4016694082161870	0.3958781706240000
200	0.3901024788671870	0.3843428523590000	0.3785998137211870	0.3728738887840000	0.3671656065861870	0.3614754993750000
200	0.3558041026061870	0.3501519549440000	0.3445195982611870	0.3389075776390000	0.3333164413671870	0.3277467409440000
200	0.3221990310761870	0.3166738696790000	0.3111718178761870	0.3056934400000000	0.3002393035911870	0.2948099793990000
200	0.2894060413811870	0.2840280667039990	0.2786766357421870	0.2733523320790000	0.2680557425061870	0.2627874570240000
200	0.2575480688411870	0.2523381743750000	0.2471583732511870	0.2420092683039990	0.2368914655761870	0.2318055743190000
200	0.2267522069921870	0.2217319792640000	0.2167455100111870	0.2117934213189990	0.2068763384811870	0.2019948899999990
200	0.1971497075861870	0.1923414261590000	0.1875706838461870	0.1828381219840000	0.1781443851171870	0.1734901209990000
200	0.1688759805911870	0.1643026180639990	0.1597706907961870	0.1552808593749990	0.1508337875961870	0.1464301424640000
200	0.1420705941911870	0.1377558161989990	0.1334864851171870	0.1292632807840000	0.1250868862461870	0.1209579877590000
200	0.1168772747861870	0.1128454400000000	0.1088631792811870	0.1049311917190000	0.1010501796111870	0.0972208484639996
200	0.0934439069921871	0.0897200671189995	0.0860500439761871	0.0824345559039996	0.0788743244511870	0.0753700743749995
200	0.0719225336411871	0.0685324334239996	0.0652005081061870	0.0619274952789997	0.0587141357421871	0.0555611735039996
200	0.0524693557811871	0.0494394329989997	0.0464721587911872	0.0435682899999996	0.0407285866761872	0.0379538120789996
200	0.0352447326761871	0.0326021181439997	0.0300267413671871	0.0275193784389997	0.0250808086611872	0.0227118145439996
200	0.0204131818061872	0.0181856993749997	0.0160301593861872	0.0139473571839996	0.0119380913211873	0.0100031635589997
200	0.0081433788671874	0.0063595454239998	0.0046524746161871	0.0030229810389999	0.0014718824961872	0
200	0	0	0	0	0	0
200	0	0	0	0	0	0
200	0	0	0	0	0	0
200	0	0	0	0	0	0
200	0	0	0	0	0	0
200	0	0	0	0	0	0
200	0	0	0	0	0	0
200	0	0	0	0	0	0
200	0	0	0	0	0	0
200	0	0	0	0	0	0
200	0	0	0	0	0	0
200	0	0	0	0	0	0
200	0	0	0	0	0	0
200	0	0	0	0	0	0
200	0	0	0	0	0	0
200	0	0	0	0	0	0
200	0	0	0	0	0	0
200	0	0	0	0	0	0
200	0	0	0	0	0	0
200	0	0	0	0	0	0
200	0	0	0	0	0	0
200	0	0	0	0	0	0
200	0	0	0	0	0	0
200	0	0	0	0	0	0
200	0	0	0	0	0	0
200	0	0	0	0	0	0
200	0	0	0	0	0	0
200	0	0	0	0	0	0
200	0	0	0	0	0	0
200	0	0	0	0	0	0
200	0	0	0	0	0	0
200	0	0	0	0	0	0
200	0	0	0	0	0	0
200	0	0	0	0	0	0
200	0	0	0	0	0	0
200	0	0	0	0	0	0
200	0	0	0	0	0	0
200	0	0	0	0	0	0
200	0	0	0	0	0	0
200	0	0	0	0	0	0
200	0	0	0	0	0	0
200	0	0	0	0	0	0
200	0	0	0	0	0	0
200	0	0	0	0	0	0
200	0	0	0	0	0	0
200	0	0	0	0	0	0
200	0	0	0	0	0	0
200	0	0	0	0	0	0
200	0	0	0	0	0	0
200	0	0	0	0	0	0
200	0	0	0	0	0	0
200	0	0	0	0	0	0
200	0	0	0	0	0	0
200	0	0	0	0	0	0
200	0	0	0	0	0	0
200	0	0	0	0	0	0
200	0	0	0	0	0	0
200	0	0	0	0	0	0
200	0	0	0	0	0	0
200	0	0	0	0	0	0
200	0	0	0	0	0	0
200	0	0	0	0	0	0
200	0	0	0	0	0	0
200	0	0	0	0	0	0
200	0	0	0	0	0	0
200	0	0	0	0	0	0
200	0	0	0	0	0	0
200	0	0	0	0	0	0
200	0	0	0	0	0	0
200	0	0	0	0	0	0
200	0	0	0	0	0	0
200	0	0	0	0	0	0
200	0	0	0	0	0	0
200	0	0	0	0	0	0
200	0	0	0	0	0	0
200	0	0	0	0	0	0
200	0	0	0	0	0	0
200	0	0	0	0	0	0
200	0	0	0	0	0	0
200	0	0	0	0	0	0
200	0	0	0	0	0	0
200	0	0	0	0	0	0
200	0	0	0	0	0	0
200	0	0	0	0	0	0
200	0	0	0	0	0	0
200	0	0	0	0	0	0
200	0	0	0	0	0	0
200	0	0	0	0	0	0
200	0	0	0	0	0	0
200	0	0	0	0	0	0
200	0	0	0	0	0	0
200	0	0	0	0	0	0
200	0	0	0	0	0	0
200	0	0	0	0	0	0
200	0	0	0	0	0	0
200	0	0	0	0	0	0
200	0	0	0	0	0	0
200	0	0	0	0	0	0
200	0	0	0	0	0	0
200	0	0	0	0	0	0
200	0	0	0	0	0	0
200	0	0	0	0	0	0
200	0	0	0	0	0	0
200	0	0	0	0	0	0
200	0	0	0	0	0	0
200	0	0	0	0	0	0
200	0	0	0	0	0	0
200	0	0	0	0	0	0
200	0	0	0	0	0	0
200	0	0	0	0	0	0
200	0	0	0	0	0	0
200	0	0	0	0	0	0
200	0	0	0	0	0	0
200	0	0	0	0	0	0
200	0	0	0	0	0	0


400	1	1	1	1	1	1
400	1	1	1	1	0.99739663446929300	0.99478805332118700
400	0.99217427987210500	0.98955533763900000	0.98693125033935500	0.98430204189118800	0.98166773641304300	0.97902835822400000
400	0.97638393184366800	0.97373448199218700	0.97108003359023000	0.96842061175900000	0.96575624182023000	0.96308694929618800
400	0.96041275990966800	0.95773369958400000	0.95504979444304300	0.95236107081118700	0.94966755521335500	0.94696927437500000
400	0.94426625522210500	0.94155852488118800	0.93884611067929300	0.93612904014400000	0.93340734100341800	0.93068104118618700
400	0.92795016882148000	0.92521475223900000	0.92247481996898000	0.91973040074218700	0.91698152348991800	0.91422821734400000
400	0.91147051163679300	0.90870843590118700	0.90594201987060500	0.90317129347900000	0.90039628686085500	0.89761703035118700
400	0.89483355448554300	0.89204589000000000	0.88925406783116800	0.88645811911618700	0.88365807519273000	0.88085396759900000
400	0.87804582807373000	0.87523368855618700	0.87241758118616800	0.86959753830400000	0.86677359245054300	0.86394577636718700
400	0.86111412299585500	0.85827866547900000	0.85543943715960500	0.85259647158118700	0.84974980248779300	0.84689946382400000
400	0.84404548973491800	0.84118791456618700	0.83832677286398000	0.83546209937500000	0.83259392904648000	0.82972229702618700
400	0.82684723866241800	0.82396878950400000	0.82108698530029300	0.81820186200118700	0.81531345575710500	0.81242180291900000
400	0.80952694003835500	0.80662890386718700	0.80372773135804300	0.80082345966400000	0.79791612613866800	0.79500576833618700
400	0.79209242401123000	0.78917613111900000	0.78625692781523000	0.78333485245618700	0.78040994359866800	0.77748224000000000
400	0.77455178061804300	0.77161860461118700	0.76868275133835500	0.76574426035900000	0.76280317143310500	0.75985952452118700
400	0.75691335978429300	0.75396471758400000	0.75101363848241800	0.74806016324218700	0.74510433282648000	0.74214618839900000
400	0.73918577132398000	0.73622312316618700	0.73325828569091800	0.73029130086400000	0.72732221085179300	0.72435105802118700
400	0.72137788493960500	0.71840273437500000	0.71542564929585500	0.71244667287118700	0.70946584847054300	0.70648321966400000
400	0.70349883022216800	0.70051272411618700	0.69752494551773000	0.69453553879900000	0.69154454853273000	0.68855201949218700
400	0.68555799665116800	0.68256252518400000	0.67956565046554300	0.67656741807118700	0.67356787377685500	0.67056706355900000
400	0.66756503359460500	0.66456183026118700	0.66155750013679300	0.65855209000000000	0.65554564682991800	0.65253821780618700
400	0.64952985030898000	0.64652059191900000	0.64351049041748000	0.64049959378618700	0.63748795020741800	0.63447560806400000
400	0.63146261593929300	0.62844902261718700	0.62543487708210500	0.62242022851900000	0.61940512631335500	0.61638962005118700
400	0.61337375951904300	0.61035759470400000	0.60734117579366800	0.60432455317618700	0.60130777744023000	0.59829089937500000
400	0.59527396997023000	0.59225704041618700	0.58924016210366800	0.58622338662400000	0.58320676576904300	0.58019035153118700
400	0.57717419610335500	0.57415835187900000	0.57114287145210500	0.56812780761718700	0.56511321336929300	0.56209914190400000
400	0.55908564661741800	0.55607278110618700	0.55306059916748000	0.55004915479900000	0.54703850219898000	0.54402869576618700
400	0.54101979009991800	0.53801184000000000	0.53500490046679300	0.53199902670118700	0.52899427410460500	0.52599069827900000
400	0.52298835502685500	0.51998730035118700	0.51698759045554300	0.51398928174400000	0.51099243082116800	0.50799709449218700
400	0.50500332976273000	0.50201119383900000	0.49902074412773000	0.49603203823618700	0.49304513397216800	0.49006008934400000
400	0.48707696256054300	0.48409581203118700	0.48111669636585500	0.47813967437500000	0.47516480506960500	0.47219214766118700
400	0.46922176156179300	0.46625370638400000	0.46328804194091800	0.46032482824618700	0.45736412551398000	0.45440599415900000
400	0.45145049479648000	0.44849768824218700	0.44554763551241800	0.44260039782400000	0.43965603659429300	0.43671461344118700
400	0.43377619018310500	0.43084082883900000	0.42790859162835500	0.42497954097118700	0.42205373948804200	0.41913125000000000
400	0.41621213552866800	0.41329645929618700	0.41038428472523000	0.40747567543900000	0.40457069526123000	0.40166940821618700
400	0.39877187852866800	0.39587817062400000	0.39298834912804300	0.39010247886718800	0.38722062486835600	0.38434285235900000
400	0.38146922676710600	0.37859981372118800	0.37573467905029400	0.37287388878400100	0.37001750915241900	0.36716560658618800
400	0.36431824771648100	0.36147549937500100	0.35863742859398100	0.35580410260618800	0.35297558884491900	0.35015195494400100
400	0.34733326873779400	0.34451959826118900	0.34171101174960700	0.33890757763900100	0.33610936456585700	0.33331644136718900
400	0.33052887708054400	0.32774674094400200	0.32497010239617000	0.32219903107618900	0.31943359682373200	0.31667386967900200
400	0.31391991988273200	0.31117181787618900	0.30842963430117000	0.30569344000000200	0.30296330601554500	0.30023930359119000
400	0.29752150417085800	0.29480997939900200	0.29210480112060800	0.28940604138119000	0.28671377242679500	0.28402806670400200
400	0.28134899685992000	0.27867663574219000	0.27601105639898300	0.27335233207900300	0.27070053623148300	0.26805574250619000
400	0.26541802475342100	0.26278745702400300	0.26016411356929600	0.25754806884119000	0.25493939749210800	0.25233817437500300
400	0.24974447454335900	0.24715837325119000	0.24457994595304600	0.24200926830400300	0.23944641615967100	0.23689146557619100
400	0.23434449281023400	0.23180557431900300	0.22927478676023400	0.22675220699219100	0.22423791207367100	0.22173197926400400
400	0.21923448602304700	0.21674551001119100	0.21426512908935900	0.21179342131900400	0.20933046496210900	0.20687633848119100
400	0.20443112053929700	0.20199489000000400	0.19956772592742200	0.19714970758619100	0.19474091444148400	0.19234142615900400
400	0.18995132260498400	0.18757068384619100	0.18519959014992200	0.18283812198400400	0.18048636001679700	0.17814438511719200
400	0.17581227835461000	0.17349012099900400	0.17117799452086000	0.16887598059119200	0.16658416108154700	0.16430261806400400
400	0.16203143381117200	0.15977069079619200	0.15752047169273500	0.15528085937500400	0.15305193691773500	0.15083378759619200
400	0.14862649488617300	0.14643014246400500	0.14424481420654800	0.14207059419119200	0.13990756669586000	0.13775581619900500
400	0.13561542737961000	0.13348648511719200	0.13136907449179800	0.12926328078400500	0.12716918947492300	0.12508688624619200
400	0.12301645697998500	0.12095798775900500	0.11891156486648500	0.11687727478619200	0.11485520420242300	0.11284544000000500
400	0.11084806926429800	0.10886317928119200	0.10689085753711000	0.10493119171900500	0.10298426971436000	0.10105017961119200
400	0.09912900969804790	0.09722084846400500	0.09532578459867280	0.09344390699219240	0.09157530473523550	0.08972006711900500
400	0.08787828363523540	0.08605004397619250	0.08423543803467300	0.08243455590400490	0.08064748787804790	0.07887432445119250
400	0.07711515631836050	0.07537007437500500	0.07363916971711050	0.07192253364119250	0.07022025764429780	0.06853243342400490
400	0.06685915287842280	0.06520050810619240	0.06355659140648540	0.06192749527900500	0.06031331242398540	0.05871413574219240
400	0.05713005833492280	0.05556117350400480	0.05400757475179780	0.05246935578119240	0.05094661049561020	0.04943943299900490
400	0.04794791759586040	0.04647215879119230	0.04501225129054780	0.04356829000000470	0.04214037002617270	0.04072858667619220
400	0.03933303545773530	0.03795381207900460	0.03659101244873500	0.03524473267619200	0.03391506907117250	0.03260211814400460
400	0.03130597660554750	0.03002674136719200	0.02876450954086000	0.02751937843900440	0.02629144557460970	0.02508080866119180
400	0.02388756561279730	0.02271181454400430	0.02155365376992210	0.02041318180619170	0.01929049736898470	0.01818569937500400
400	0.01709888694148450	0.01603015938619150	0.01497961622742190	0.01394735718400390	0.01293348217529690	0.01193809132119130
400	0.01096128494210920	0.01000316355900370	0.00906382789335924	0.00814337886719108	0.00724191760304649	0.00635954542400352
400	0.00549636385367136	0.00465247461619089	0.00382797963623371	0.00302298103900334	0.00223758115023354	0.00147188249619079
400	0.000725987803670947	0	0	0	0	0
400	0	0	0	0	0	0
400	0	0	0	0	0	0
400	0	0	0	0	0	0
400	0	0	0	0	0	0
400	0	0	0	0	0	0
400	0	0	0	0	0	0
400	0	0	0	0	0	0
400	0	0	0	0	0	0
400	0	0	0	0	0	0
400	0	0	0	0	0	0
400	0	0	0	0	0	0
400	0	0	0	0	0	0
400	0	0	0	0	0	0
400	0	0	0	0	0	0
400	0	0	0	0	0	0
400	0	0	0	0	0	0
400	0	0	0	0	0	0
400	0	0	0	0	0	0
400	0	0	0	0	0	0
400	0	0	0	0	0	0
400	0	0	0	0	0	0
400	0	0	0	0	0	0
400	0	0	0	0	0	0
400	0	0	0	0	0	0
400	0	0	0	0	0	0
400	0	0	0	0	0	0
400	0	0	0	0	0	0
400	0	0	0	0	0	0
400	0	0	0	0	0	0
400	0	0	0	0	0	0
400	0	0	0	0	0	0
400	0	0	0	0	0	0
400	0	0	0	0	0	0
400	0	0	0	0	0	0
400	0	0	0	0	0	0
400	0	0	0	0	0	0
400	0	0	0	0	0	0
400	0	0	0	0	0	0
400	0	0	0	0	0	0
400	0	0	0	0	0	0
400	0	0	0	0	0	0
400	0	0	0	0	0	0
400	0	0	0	0	0	0
400	0	0	0	0	0	0
400	0	0	0	0	0	0
400	0	0	0	0	0	0
400	0	0	0	0	0	0
400	0	0	0	0	0	0
400	0	0	0	0	0	0
400	0	0	0	0	0	0
400	0	0	0	0	0	0
400	0	0	0	0	0	0
400	0	0	0	0	0	0
400	0	0	0	0	0	0
400	0	0	0	0	0	0
400	0	0	0	0	0	0
400	0	0	0	0	0	0
400	0	0	0	0	0	0
400	0	0	0	0	0	0
400	0	0	0	0	0	0
400	0	0	0	0	0	0
400	0	0	0	0	0	0
400	0	0	0	0	0	0
400	0	0	0	0	0	0
400	0	0	0	0	0	0
400	0	0	0	0	0	0
400	0	0	0	0	0	0
400	0	0	0	0	0	0
400	0	0	0	0	0	0
400	0	0	0	0	0	0
400	0	0	0	0	0	0
400	0	0	0	0	0	0
400	0	0	0	0	0	0
400	0	0	0	0	0	0
400	0	0	0	0	0	0
400	0	0	0	0	0	0
400	0	0	0	0	0	0
400	0	0	0	0	0	0
400	0	0	0	0	0	0
400	0	0	0	0	0	0
400	0	0	0	0	0	0




[CURVES]
;ID              	X-Value     	Y-Value

[CONTROLS]



[RULES]



[ENERGY]
 Global Efficiency  	75
 Global Price       	0
 Demand Charge      	0

[EMITTERS]
;Junction        	Coefficient

[QUALITY]
;Node            	InitQual

[SOURCES]
;Node            	Type        	Quality     	Pattern

[REACTIONS]
;Type     	Pipe/Tank       	Coefficient


[REACTIONS]
 Order Bulk            	1
 Order Tank            	1
 Order Wall            	1
 Global Bulk           	0
 Global Wall           	0
 Limiting Potential    	0
 Roughness Correlation 	0

[MIXING]
;Tank            	Model

[TIMES]
 Duration           	0:09
 Hydraulic Timestep 	0:00:05 
 Quality Timestep   	0:05 
 Pattern Timestep   	0:00:01 
 Pattern Start      	0:00 
 Report Timestep    	1:00 
 Report Start       	0:00 
 Start ClockTime    	12 am
 Statistic          	NONE

[REPORT]
 Status             	Full
 Trials                 Yes
 Summary            	Yes
 Page               	0
 Nodes                  All
 Links                  All 

[OPTIONS]
 Flow_Units              	LPS
 Pressure_Units             METERS
 Headloss_Model           	D-W
 Specific_Gravity       	1
 Specific_Viscosity         1
 Maximum_Trials            	33
 Relative_Accuracy      	0.001
 Unbalanced              	Continue
 Demand_Pattern            	1
 Demand_Multiplier      	1.0
 Emitter_Exponent       	0.5
 Quality_Model            	None mg/L
 Specific_Diffusivity      	1
 Quality_Tolerance        	0.001
 Head_Tolerance             0.001
 Flow_Tolerance             0.001
 Flow_Change_Limit          0.001
 Step_Sizing                FULL
 VALVE_REP_TYPE             Toe
 Demand_Model               LOGISTIC
 MINIMUM_PRESSURE           0
 SERVICE_PRESSURE           177
 PRESSURE_EXPONENT          0.5
 Hyd_Solver                 CGGA
 Time_Weight                0.5
 TEMP_DISC_PARA             1

[COORDINATES]
;Node            	X-Coord           	Y-Coord
N3              	87.450            	6543.210          
N2              	961.930           	5658.440          
N5              	2649.180          	5658.440          
N4              	1414.360          	6965.590          
N6              	2361.110          	6965.020          
N7              	3750.550          	5656.400          
N8              	4091.790          	5653.120          
R1              	-529.840          	7427.980          

[VERTICES]
;Link            	X-Coord           	Y-Coord

[LABELS]
;X-Coord             Y-Coord             Label & Anchor Node
-149.180          	7047.330          	"P1"	
601.850           	6944.440          	"P2"	
478.400           	6296.300          	"P3"	
1887.860          	7170.780          	"P4"	
992.800           	6522.630          	"P5"	
1774.690          	5617.280          	"P6"	
3184.160          	5607.000          	"P7"	
2582.450          	6306.080          	"P8"	
1620.370          	6584.360          	"P9"	
-632.720          	7366.260          	"R1"	
-77.160           	6481.480          	"N3"	
1404.320          	7201.650          	"N4"	
2350.820          	7160.490          	"N6"	
859.050           	5576.130          	"N2"	
2677.610          	5561.250          	"N5"	
3636.830          	5596.710          	"VALVE"	
3667.700          	5864.200          	"N7"	
4048.350          	5853.910          	"N8"	

[BACKDROP]
  DIMENSIONS  	0.000             	0.000             	10000.000         	10000.000         
 UNITS          	None
 FILE           	
 OFFSET         	0.00            	0.00            

[END]
