[TITLE]


[JUNCTIONS]
;ID              	Elev        	Demand      	Pattern         
 N3              	0           	0           	                	;
 N2              	0           	25          	                	;
 N5              	0           	0           	                	;
 N4              	0           	25          	                	;
 N6              	0           	0           	                	;
 N7              	0           	0           	                	;
 N8              	0           	100         	                	;

[RESERVOIRS]
;ID              	Head        	Pattern         
 R1              	191         	                	;

[TANKS]
;ID              	Elevation   	InitLevel   	MinLevel    	MaxLevel    	Diameter    	MinVol      	VolCurve        	Overflow
 T1              	110         	10          	0           	20          	10          	0           	                	;
 T2              	110         	10          	0           	20          	15          	0           	                	;

[PIPES]
;ID              	Node1           	Node2           	Length      	Diameter    	Roughness   	MinorLoss   	Status
 P1              	R1              	N3              	610         	900         	0.3        	0           	Open  	;
 P2              	N3              	N4              	914         	750         	0.3        	0           	Open  	;
 P3              	N3              	N2              	610         	600         	0.3        	0           	Open  	;
 P4              	N4              	N6              	457         	450         	0.3        	0           	Open  	;
 P5              	N4              	N2              	549         	450         	0.3        	0           	Open  	;
 P6              	N5              	N2              	671         	750         	0.3        	0           	Open  	;
 P7              	N5              	N7              	1000        	900         	0.3        	0           	Open  	;
 P8              	N6              	N5              	457         	600         	0.3        	0           	Open  	;
 P9              	N2              	N6              	488         	450         	0.3        	0           	Open  	;
 P10             	N6              	T1              	400        	    400          	0.3         0           	Open  	;
 P11             	N8              	T2              	400        	    400         	0.3         0           	Open  	;

[PUMPS]
;ID              	Node1           	Node2           	Parameters

[VALVES]
;ID              	Node1           	Node2           	Diameter    	Type	Setting  MinorLoss   Pattern   
 VALVE           	N7              	N8              	400         	CCV 	1       	0          400	;

[TAGS]

[DEMANDS]
;Junction        	Demand      	Pattern         	Category

[STATUS]
;ID              	Status/Setting


[PATTERNS]
;ID              	Multipliers

10	1	1	1	1	1	1
10	1	1	1	1	0.962381215	0.896700960
10	0.812117605	0.714764800	0.608446875	0.495334240	0.376658785	0.253409280
10	0.127026775	0	0	0	0	0
10	0	0	0	0	0	0
10	0	0	0	0	0	0
10	0	0	0	0	0	0
10	0	0	0	0	0	0
10	0	0	0	0	0	0
10	0	0	0	0	0	0
10	0	0	0	0	0	0
10	0	0	0	0	0	0
10	0	0	0	0	0	0
10	0	0	0	0	0	0
10	0	0	0	0	0	0
10	0	0	0	0	0	0
10	0	0	0	0	0	0
10	0	0	0	0	0	0
10	0	0	0	0	0	0
10	0	0	0	0	0	0
10	0	0	0	0	0	0
10	0	0	0	0	0	0
10	0	0	0	0	0	0
10	0	0	0	0	0	0
10	0	0	0	0	0	0
10	0	0	0	0	0	0
10	0	0	0	0	0	0
10	0	0	0	0	0	0
10	0	0	0	0	0	0
10	0	0	0	0	0	0
10	0	0	0	0	0	0
10	0	0	0	0	0	0
10	0	0	0	0	0	0
10	0	0	0	0	0	0
10	0	0	0	0	0	0
10	0	0	0	0	0	0
10	0	0	0	0	0	0
10	0	0	0	0	0	0
10	0	0	0	0	0	0
10	0	0	0	0	0	0
10	0	0	0	0	0	0
10	0	0	0	0	0	0
10	0	0	0	0	0	0
10	0	0	0	0	0	0
10	0	0	0	0	0	0
10	0	0	0	0	0	0
10	0	0	0	0	0	0
10	0	0	0	0	0	0
10	0	0	0	0	0	0
10	0	0	0	0	0	0
10	0	0	0	0	0	0
10	0	0	0	0	0	0
10	0	0	0	0	0	0
10	0	0	0	0	0	0
10	0	0	0	0	0	0
10	0	0	0	0	0	0
10	0	0	0	0	0	0
10	0	0	0	0	0	0
10	0	0	0	0	0	0
10	0	0	0	0	0	0
10	0	0	0	0	0	0
10	0	0	0	0	0	0
10	0	0	0	0	0	0
10	0	0	0	0	0	0
10	0	0	0	0	0	0
10	0	0	0	0	0	0
10	0	0	0	0	0	0
10	0	0	0	0	0	0
10	0	0	0	0	0	0
10	0	0	0	0	0	0
10	0	0	0	0	0	0
10	0	0	0	0	0	0
10	0	0	0	0	0	0
10	0	0	0	0	0	0
10	0	0	0	0	0	0
10	0	0	0	0	0	0
10	0	0	0	0	0	0
10	0	0	0	0	0	0
10	0	0	0	0	0	0
10	0	0	0	0	0	0
10	0	0	0	0	0	0
10	0	0	0	0	0	0
10	0	0	0	0	0	0
10	0	0	0	0	0	0
10	0	0	0	0	0	0
10	0	0	0	0	0	0
10	0	0	0	0	0	0
10	0	0	0	0	0	0
10	0	0	0	0	0	0
10	0	0	0	0	0	0
10	0	0	0	0	0	0
10	0	0	0	0	0	0
10	0	0	0	0	0	0
10	0	0	0	0	0	0
10	0	0	0	0	0	0
10	0	0	0	0	0	0
10	0	0	0	0	0	0
10	0	0	0	0	0	0
10	0	0	0	0	0	0
10	0	0	0	0	0	0
10	0	0	0	0	0	0
10	0	0	0	0	0	0
10	0	0	0	0	0	0
10	0	0	0	0	0	0
10	0	0	0	0	0	0
10	0	0	0	0	0	0
10	0	0	0	0	0	0
10	0	0	0	0	0	0
10	0	0	0	0	0	0
10	0	0	0	0	0	0
10	0	0	0	0	0	0
10	0	0	0	0	0	0
10	0	0	0	0	0	0
10	0	0	0	0	0	0
10	0	0	0	0	0	0
10	0	0	0	0	0	0
10	0	0	0	0	0	0
10	0	0	0	0	0	0
10	0	0	0	0	0	0
10	0	0	0	0	0	0
10	0	0	0	0	0	0
10	0	0	0	0	0	0
10	0	0	0	0	0	0
10	0	0	0	0	0	0
10	0	0	0	0	0	0
10	0	0	0	0	0	0
10	0	0	0	0	0	0
10	0	0	0	0	0	0
10	0	0	0	0	0	0
10	0	0	0	0	0	0
10	0	0	0	0	0	0
10	0	0	0	0	0	0
10	0	0	0	0	0	0
10	0	0	0	0	0	0
10	0	0	0	0	0	0
10	0	0	0	0	0	0
10	0	0	0	0	0	0
10	0	0	0	0	0	0
10	0	0	0	0	0	0
10	0	0	0	0	0	0
10	0	0	0	0	0	0
10	0	0	0	0	0	0
10	0	0	0	0	0	0
10	0	0	0	0	0	0
10	0	0	0	0	0	0
10	0	0	0	0	0	0
10	0	0	0	0	0	0
10	0	0	0	0	0	0
10	0	0	0	0	0	0
10	0	0	0	0	0	0


50	1	1	1	1	1	1
50	1	1	1	1	0.99528015068640	0.98905265505280
50	0.98142649321120	0.97250402549760	0.96238121500000	0.95114785008640	0.93888776693280	0.92567907205120
50	0.91159436481760	0.89670096000000	0.88106111028640	0.86473222881280	0.84776711169120	0.83021416053760
50	0.81211760500000	0.79351772528640	0.77445107469280	0.75495070213120	0.73504637465760	0.71476480000000
50	0.69412984908640	0.67316277857280	0.65188245337120	0.63030556917760	0.60844687500000	0.58631939568640
50	0.56393465445280	0.54130289541120	0.51843330609760	0.49533424000000	0.47201343908640	0.44847825633280
50	0.42473587825120	0.40079354741760	0.37665878500000	0.35233961328640	0.32784477821280	0.30318397189120
50	0.27836805513760	0.25340928000000	0.22832151228640	0.20312045409280	0.17782386633120	0.15245179125760
50	0.12702677500000	0.10157409008640	0.07612195797280	0.05070177157120	0.02534831777760	0
50	0	0	0	0	0	0
50	0	0	0	0	0	0
50	0	0	0	0	0	0
50	0	0	0	0	0	0
50	0	0	0	0	0	0
50	0	0	0	0	0	0
50	0	0	0	0	0	0
50	0	0	0	0	0	0
50	0	0	0	0	0	0
50	0	0	0	0	0	0
50	0	0	0	0	0	0
50	0	0	0	0	0	0
50	0	0	0	0	0	0
50	0	0	0	0	0	0
50	0	0	0	0	0	0
50	0	0	0	0	0	0
50	0	0	0	0	0	0
50	0	0	0	0	0	0
50	0	0	0	0	0	0
50	0	0	0	0	0	0
50	0	0	0	0	0	0
50	0	0	0	0	0	0
50	0	0	0	0	0	0
50	0	0	0	0	0	0
50	0	0	0	0	0	0
50	0	0	0	0	0	0
50	0	0	0	0	0	0
50	0	0	0	0	0	0
50	0	0	0	0	0	0
50	0	0	0	0	0	0
50	0	0	0	0	0	0
50	0	0	0	0	0	0
50	0	0	0	0	0	0
50	0	0	0	0	0	0
50	0	0	0	0	0	0
50	0	0	0	0	0	0
50	0	0	0	0	0	0
50	0	0	0	0	0	0
50	0	0	0	0	0	0
50	0	0	0	0	0	0
50	0	0	0	0	0	0
50	0	0	0	0	0	0
50	0	0	0	0	0	0
50	0	0	0	0	0	0
50	0	0	0	0	0	0
50	0	0	0	0	0	0
50	0	0	0	0	0	0
50	0	0	0	0	0	0
50	0	0	0	0	0	0
50	0	0	0	0	0	0
50	0	0	0	0	0	0
50	0	0	0	0	0	0
50	0	0	0	0	0	0
50	0	0	0	0	0	0
50	0	0	0	0	0	0
50	0	0	0	0	0	0
50	0	0	0	0	0	0
50	0	0	0	0	0	0
50	0	0	0	0	0	0
50	0	0	0	0	0	0
50	0	0	0	0	0	0
50	0	0	0	0	0	0
50	0	0	0	0	0	0
50	0	0	0	0	0	0
50	0	0	0	0	0	0
50	0	0	0	0	0	0
50	0	0	0	0	0	0
50	0	0	0	0	0	0
50	0	0	0	0	0	0
50	0	0	0	0	0	0
50	0	0	0	0	0	0
50	0	0	0	0	0	0
50	0	0	0	0	0	0
50	0	0	0	0	0	0
50	0	0	0	0	0	0
50	0	0	0	0	0	0
50	0	0	0	0	0	0
50	0	0	0	0	0	0
50	0	0	0	0	0	0
50	0	0	0	0	0	0
50	0	0	0	0	0	0
50	0	0	0	0	0	0
50	0	0	0	0	0	0
50	0	0	0	0	0	0
50	0	0	0	0	0	0
50	0	0	0	0	0	0
50	0	0	0	0	0	0
50	0	0	0	0	0	0
50	0	0	0	0	0	0
50	0	0	0	0	0	0
50	0	0	0	0	0	0
50	0	0	0	0	0	0
50	0	0	0	0	0	0
50	0	0	0	0	0	0
50	0	0	0	0	0	0
50	0	0	0	0	0	0
50	0	0	0	0	0	0
50	0	0	0	0	0	0
50	0	0	0	0	0	0
50	0	0	0	0	0	0
50	0	0	0	0	0	0
50	0	0	0	0	0	0
50	0	0	0	0	0	0
50	0	0	0	0	0	0
50	0	0	0	0	0	0
50	0	0	0	0	0	0
50	0	0	0	0	0	0
50	0	0	0	0	0	0
50	0	0	0	0	0	0
50	0	0	0	0	0	0
50	0	0	0	0	0	0
50	0	0	0	0	0	0
50	0	0	0	0	0	0
50	0	0	0	0	0	0
50	0	0	0	0	0	0
50	0	0	0	0	0	0
50	0	0	0	0	0	0
50	0	0	0	0	0	0
50	0	0	0	0	0	0
50	0	0	0	0	0	0
50	0	0	0	0	0	0
50	0	0	0	0	0	0
50	0	0	0	0	0	0
50	0	0	0	0	0	0
50	0	0	0	0	0	0
50	0	0	0	0	0	0
50	0	0	0	0	0	0
50	0	0	0	0	0	0
50	0	0	0	0	0	0
50	0	0	0	0	0	0
50	0	0	0	0	0	0
50	0	0	0	0	0	0
50	0	0	0	0	0	0
50	0	0	0	0	0	0
50	0	0	0	0	0	0
50	0	0	0	0	0	0
50	0	0	0	0	0	0
50	0	0	0	0	0	0
50	0	0	0	0	0	0
50	0	0	0	0	0	0


100	1	1	1	1	1	1
100	1	1	1	1	0.997835607059950	0.995280150686400
100	0.992347889643850	0.989052655052800	0.985407857343750	0.981426493211200	0.977121152567650	0.972504025497600
100	0.967586909211550	0.962381215000000	0.956897975187450	0.951147850086400	0.945141134951350	0.938887766932800
100	0.932397332031250	0.925679072051200	0.918741891555150	0.911594364817600	0.904244742779050	0.896700960000000
100	0.888970641614950	0.881061110286400	0.872979393158850	0.864732228812800	0.856326074218750	0.847767111691200
100	0.839061255842650	0.830214160537600	0.821231225846550	0.812117605000000	0.802878211342450	0.793517725286400
100	0.784040601266350	0.774451074692800	0.764753168906250	0.754950702131200	0.745047294430150	0.735046374657600
100	0.724951187414050	0.714764800000000	0.704490109369950	0.694129849086400	0.683686596273850	0.673162778572800
100	0.662560681093750	0.651882453371200	0.641130116317650	0.630305569177600	0.619410596481550	0.608446875000000
100	0.597415980697450	0.586319395686400	0.575158515181350	0.563934654452800	0.552649055781250	0.541302895411200
100	0.529897290505150	0.518433306097600	0.506911962049050	0.495334240000000	0.483701090324950	0.472013439086400
100	0.460272194988850	0.448478256332799	0.436632517968749	0.424735878251200	0.412789245992650	0.400793547417599
100	0.388749733116550	0.376658784999999	0.364521723252449	0.352339613286399	0.340113572696350	0.327844778212799
100	0.315534472656249	0.303183971891199	0.290794671780149	0.278368055137599	0.265905698684049	0.253409279999999
100	0.240880584479949	0.228321512286400	0.215734085303849	0.203120454092799	0.190482904843749	0.177823866331199
100	0.165145916867649	0.152451791257599	0.139744387751549	0.127026774999999	0.114302199007449	0.101574090086399
100	0.088846069811349	0.076121957972799	0.063405779531249	0.050701771571199	0.038014390255149	0.025348317777599
100	0.0127084693190487	0	0	0	0	0
100	0	0	0	0	0	0
100	0	0	0	0	0	0
100	0	0	0	0	0	0
100	0	0	0	0	0	0
100	0	0	0	0	0	0
100	0	0	0	0	0	0
100	0	0	0	0	0	0
100	0	0	0	0	0	0
100	0	0	0	0	0	0
100	0	0	0	0	0	0
100	0	0	0	0	0	0
100	0	0	0	0	0	0
100	0	0	0	0	0	0
100	0	0	0	0	0	0
100	0	0	0	0	0	0
100	0	0	0	0	0	0
100	0	0	0	0	0	0
100	0	0	0	0	0	0
100	0	0	0	0	0	0
100	0	0	0	0	0	0
100	0	0	0	0	0	0
100	0	0	0	0	0	0
100	0	0	0	0	0	0
100	0	0	0	0	0	0
100	0	0	0	0	0	0
100	0	0	0	0	0	0
100	0	0	0	0	0	0
100	0	0	0	0	0	0
100	0	0	0	0	0	0
100	0	0	0	0	0	0
100	0	0	0	0	0	0
100	0	0	0	0	0	0
100	0	0	0	0	0	0
100	0	0	0	0	0	0
100	0	0	0	0	0	0
100	0	0	0	0	0	0
100	0	0	0	0	0	0
100	0	0	0	0	0	0
100	0	0	0	0	0	0
100	0	0	0	0	0	0
100	0	0	0	0	0	0
100	0	0	0	0	0	0
100	0	0	0	0	0	0
100	0	0	0	0	0	0
100	0	0	0	0	0	0
100	0	0	0	0	0	0
100	0	0	0	0	0	0
100	0	0	0	0	0	0
100	0	0	0	0	0	0
100	0	0	0	0	0	0
100	0	0	0	0	0	0
100	0	0	0	0	0	0
100	0	0	0	0	0	0
100	0	0	0	0	0	0
100	0	0	0	0	0	0
100	0	0	0	0	0	0
100	0	0	0	0	0	0
100	0	0	0	0	0	0
100	0	0	0	0	0	0
100	0	0	0	0	0	0
100	0	0	0	0	0	0
100	0	0	0	0	0	0
100	0	0	0	0	0	0
100	0	0	0	0	0	0
100	0	0	0	0	0	0
100	0	0	0	0	0	0
100	0	0	0	0	0	0
100	0	0	0	0	0	0
100	0	0	0	0	0	0
100	0	0	0	0	0	0
100	0	0	0	0	0	0
100	0	0	0	0	0	0
100	0	0	0	0	0	0
100	0	0	0	0	0	0
100	0	0	0	0	0	0
100	0	0	0	0	0	0
100	0	0	0	0	0	0
100	0	0	0	0	0	0
100	0	0	0	0	0	0
100	0	0	0	0	0	0
100	0	0	0	0	0	0
100	0	0	0	0	0	0
100	0	0	0	0	0	0
100	0	0	0	0	0	0
100	0	0	0	0	0	0
100	0	0	0	0	0	0
100	0	0	0	0	0	0
100	0	0	0	0	0	0
100	0	0	0	0	0	0
100	0	0	0	0	0	0
100	0	0	0	0	0	0
100	0	0	0	0	0	0
100	0	0	0	0	0	0
100	0	0	0	0	0	0
100	0	0	0	0	0	0
100	0	0	0	0	0	0
100	0	0	0	0	0	0
100	0	0	0	0	0	0
100	0	0	0	0	0	0
100	0	0	0	0	0	0
100	0	0	0	0	0	0
100	0	0	0	0	0	0
100	0	0	0	0	0	0
100	0	0	0	0	0	0
100	0	0	0	0	0	0
100	0	0	0	0	0	0
100	0	0	0	0	0	0
100	0	0	0	0	0	0
100	0	0	0	0	0	0
100	0	0	0	0	0	0
100	0	0	0	0	0	0
100	0	0	0	0	0	0
100	0	0	0	0	0	0
100	0	0	0	0	0	0
100	0	0	0	0	0	0
100	0	0	0	0	0	0
100	0	0	0	0	0	0
100	0	0	0	0	0	0
100	0	0	0	0	0	0
100	0	0	0	0	0	0
100	0	0	0	0	0	0
100	0	0	0	0	0	0
100	0	0	0	0	0	0
100	0	0	0	0	0	0
100	0	0	0	0	0	0
100	0	0	0	0	0	0
100	0	0	0	0	0	0
100	0	0	0	0	0	0
100	0	0	0	0	0	0
100	0	0	0	0	0	0
100	0	0	0	0	0	0


200	1	1	1	1	1	1
200	1	1	1	1	0.9989675945269360	0.9978356070599500
200	0.9966058605251830	0.9952801506864000	0.9938602463623050	0.9923478896438500	0.9907447961115520	0.9890526550528000
200	0.9872731296791730	0.9854078573437500	0.9834584497584200	0.9814264932112000	0.9793135487835420	0.9771211525676500
200	0.9748508158837890	0.9725040254976000	0.9700822438374110	0.9675869092115500	0.9650194360256580	0.9623812150000000
200	0.9596736133867800	0.9568979751874500	0.9540556213700270	0.9511478500864000	0.9481759368896480	0.9451411349513500
200	0.9420446752788950	0.9388877669328000	0.9356715972440170	0.9323973320312500	0.9290661158182640	0.9256790720512000
200	0.9222373033158860	0.9187418915551500	0.9151938982861330	0.9115943648176000	0.9079443124672550	0.9042447427790500
200	0.9004966377405010	0.8967009600000000	0.8928586530841230	0.8889706416149500	0.8850378315273700	0.8810611102864000
200	0.8770413471044920	0.8729793931588500	0.8688760818087390	0.8647322288128000	0.8605486325463610	0.8563260742187500
200	0.8520653180906080	0.8477671116912000	0.8434321860357300	0.8390612558426500	0.8346550197509760	0.8302141605376000
200	0.8257393453345980	0.8212312258465500	0.8166904385678450	0.8121176050000000	0.8075133318689670	0.8028782113424500
200	0.7982128212472140	0.7935177252864000	0.7887934732568360	0.7840406012663500	0.7792596319510830	0.7744510746928000
200	0.7696154258362040	0.7647531689062500	0.7598647748254510	0.7549507021312000	0.7500113971930730	0.7450472944301500
200	0.7400588165283200	0.7350463746576000	0.7300103686894420	0.7249511874140500	0.7198692087576890	0.7147648000000000
200	0.7096383179913110	0.7044901093699500	0.6993205107795570	0.6941298490864000	0.6889184415966790	0.6836865962738500
200	0.6784346119559260	0.6731627785728000	0.6678713773635480	0.6625606810937500	0.6572309542727950	0.6518824533712000
200	0.6465154270379170	0.6411301163176500	0.6357267548681640	0.6303055691776000	0.6248667787817860	0.6194105964815500
200	0.6139372285600320	0.6084468750000000	0.6029397297011540	0.5974159806974500	0.5918758103744010	0.5863193956864000
200	0.5807469083740230	0.5751585151813500	0.5695543780732700	0.5639346544528000	0.5582994973783920	0.5526490557812500
200	0.5469834746826390	0.5413028954111990	0.5356074558202610	0.5298972905051490	0.5241725310205070	0.5184333060976000
200	0.5126797418616290	0.5069119620490500	0.5011300882248760	0.4953342399999990	0.4895245352484980	0.4837010903249490
200	0.4778640202817450	0.4720134390863990	0.4661494598388660	0.4602721949888490	0.4543817565531140	0.4484782563327990
200	0.4425618061307350	0.4366325179687490	0.4306905043049820	0.4247358782511990	0.4187687537901040	0.4127892459926490
200	0.4067974712353510	0.4007935474175990	0.3947775941789730	0.3887497331165490	0.3827100880022200	0.3766587849999990
200	0.3705959528833420	0.3645217232524490	0.3584362307515880	0.3523396132863990	0.3462320122412100	0.3401135726963490
200	0.3339844436454570	0.3278447782127990	0.3216947338705790	0.3155344726562490	0.3093641613898260	0.3031839718911990
200	0.2969940811974480	0.2907946717801490	0.2845859317626950	0.2783680551375990	0.2721412419838160	0.2659056986840490
200	0.2596616381420630	0.2534092799999990	0.2471488508556850	0.2408805844799490	0.2346047220339320	0.2283215122863990
200	0.2220312118310540	0.2157340853038490	0.2094304056003010	0.2031204540927990	0.1968045208479230	0.1904829048437490
200	0.1841559141871690	0.1778238663311990	0.1714870882922910	0.1651459168676490	0.1588006988525380	0.1524517912575990
200	0.1460995615261600	0.1397443877515490	0.1333866588944070	0.1270267749999990	0.1206651474155290	0.1143021990074490
200	0.1079383643787750	0.1015740900863990	0.0952098348583975	0.0888460698113490	0.0824832786676444	0.0761219579727990
200	0.0697626173127659	0.0634057795312486	0.0570519809470130	0.0507017715711987	0.0443557153246352	0.0380143902551491
200	0.0316783887548815	0.0253483177775990	0.0190247990560034	0.0127084693190486	0.0063999805092507	0
200	0	0	0	0	0	0
200	0	0	0	0	0	0
200	0	0	0	0	0	0
200	0	0	0	0	0	0
200	0	0	0	0	0	0
200	0	0	0	0	0	0
200	0	0	0	0	0	0
200	0	0	0	0	0	0
200	0	0	0	0	0	0
200	0	0	0	0	0	0
200	0	0	0	0	0	0
200	0	0	0	0	0	0
200	0	0	0	0	0	0
200	0	0	0	0	0	0
200	0	0	0	0	0	0
200	0	0	0	0	0	0
200	0	0	0	0	0	0
200	0	0	0	0	0	0
200	0	0	0	0	0	0
200	0	0	0	0	0	0
200	0	0	0	0	0	0
200	0	0	0	0	0	0
200	0	0	0	0	0	0
200	0	0	0	0	0	0
200	0	0	0	0	0	0
200	0	0	0	0	0	0
200	0	0	0	0	0	0
200	0	0	0	0	0	0
200	0	0	0	0	0	0
200	0	0	0	0	0	0
200	0	0	0	0	0	0
200	0	0	0	0	0	0
200	0	0	0	0	0	0
200	0	0	0	0	0	0
200	0	0	0	0	0	0
200	0	0	0	0	0	0
200	0	0	0	0	0	0
200	0	0	0	0	0	0
200	0	0	0	0	0	0
200	0	0	0	0	0	0
200	0	0	0	0	0	0
200	0	0	0	0	0	0
200	0	0	0	0	0	0
200	0	0	0	0	0	0
200	0	0	0	0	0	0
200	0	0	0	0	0	0
200	0	0	0	0	0	0
200	0	0	0	0	0	0
200	0	0	0	0	0	0
200	0	0	0	0	0	0
200	0	0	0	0	0	0
200	0	0	0	0	0	0
200	0	0	0	0	0	0
200	0	0	0	0	0	0
200	0	0	0	0	0	0
200	0	0	0	0	0	0
200	0	0	0	0	0	0
200	0	0	0	0	0	0
200	0	0	0	0	0	0
200	0	0	0	0	0	0
200	0	0	0	0	0	0
200	0	0	0	0	0	0
200	0	0	0	0	0	0
200	0	0	0	0	0	0
200	0	0	0	0	0	0
200	0	0	0	0	0	0
200	0	0	0	0	0	0
200	0	0	0	0	0	0
200	0	0	0	0	0	0
200	0	0	0	0	0	0
200	0	0	0	0	0	0
200	0	0	0	0	0	0
200	0	0	0	0	0	0
200	0	0	0	0	0	0
200	0	0	0	0	0	0
200	0	0	0	0	0	0
200	0	0	0	0	0	0
200	0	0	0	0	0	0
200	0	0	0	0	0	0
200	0	0	0	0	0	0
200	0	0	0	0	0	0
200	0	0	0	0	0	0
200	0	0	0	0	0	0
200	0	0	0	0	0	0
200	0	0	0	0	0	0
200	0	0	0	0	0	0
200	0	0	0	0	0	0
200	0	0	0	0	0	0
200	0	0	0	0	0	0
200	0	0	0	0	0	0
200	0	0	0	0	0	0
200	0	0	0	0	0	0
200	0	0	0	0	0	0
200	0	0	0	0	0	0
200	0	0	0	0	0	0
200	0	0	0	0	0	0
200	0	0	0	0	0	0
200	0	0	0	0	0	0
200	0	0	0	0	0	0
200	0	0	0	0	0	0
200	0	0	0	0	0	0
200	0	0	0	0	0	0
200	0	0	0	0	0	0
200	0	0	0	0	0	0
200	0	0	0	0	0	0
200	0	0	0	0	0	0
200	0	0	0	0	0	0
200	0	0	0	0	0	0
200	0	0	0	0	0	0
200	0	0	0	0	0	0
200	0	0	0	0	0	0
200	0	0	0	0	0	0
200	0	0	0	0	0	0
200	0	0	0	0	0	0
200	0	0	0	0	0	0


400	1	1	1	1	1	1
400	1	1	1	1	0.9994963600125640	0.9989675945269360
400	0.9984139339706350	0.9978356070599500	0.9972328408067320	0.9966058605251830	0.9959548898386460	0.9952801506864000
400	0.9945818633304470	0.9938602463623050	0.9931155167097980	0.9923478896438500	0.9915575787852710	0.9907447961115520
400	0.9899097519636540	0.9890526550528000	0.9881737124672670	0.9872731296791730	0.9863511105512740	0.9854078573437500
400	0.9844435707209970	0.9834584497584200	0.9824526919492230	0.9814264932112000	0.9803800478935240	0.9793135487835420
400	0.9782271871135630	0.9771211525676500	0.9759956332884110	0.9748508158837890	0.9736868854338560	0.9725040254976000
400	0.9713024181197190	0.9700822438374110	0.9688436816871640	0.9675869092115500	0.9663121024660120	0.9650194360256580
400	0.9637090829920510	0.9623812150000000	0.9610360022243510	0.9596736133867800	0.9582942157625780	0.9568979751874500
400	0.9554850560643000	0.9540556213700270	0.9526098326623080	0.9511478500864000	0.9496698323819210	0.9481759368896480
400	0.9466663195583040	0.9451411349513500	0.9436005362537770	0.9420446752788950	0.9404737024751280	0.9388877669328000
400	0.9372870163909290	0.9356715972440170	0.9340416545488430	0.9323973320312500	0.9307387720929400	0.9290661158182640
400	0.9273795029810110	0.9256790720512000	0.9239649602018740	0.9222373033158860	0.9204962359926940	0.9187418915551500
400	0.9169744020562920	0.9151938982861330	0.9134005097784550	0.9115943648176000	0.9097755904452560	0.9079443124672550
400	0.9061006554603580	0.9042447427790500	0.9023766965623300	0.9004966377405010	0.8986046860419630	0.8967009600000000
400	0.8947855769595760	0.8928586530841230	0.8909203033623340	0.8889706416149500	0.8870097805015560	0.8850378315273700
400	0.8830549050500330	0.8810611102864000	0.8790565553193330	0.8770413471044920	0.8750155914771220	0.8729793931588500
400	0.8709328557644700	0.8688760818087390	0.8668091727131650	0.8647322288128000	0.8626453493630280	0.8605486325463610
400	0.8584421754792240	0.8563260742187500	0.8542004237695710	0.8520653180906080	0.8499208501018600	0.8477671116912000
400	0.8456041937211610	0.8434321860357300	0.8412511774671370	0.8390612558426500	0.8368625079913600	0.8346550197509760
400	0.8324388759746180	0.8302141605376000	0.8279809563442310	0.8257393453345980	0.8234894084913630	0.8212312258465500
400	0.8189648764883360	0.8166904385678450	0.8144079893059370	0.8121176050000000	0.8098193610307380	0.8075133318689670
400	0.8051995910824020	0.8028782113424500	0.8005492644309990	0.7982128212472140	0.7958689518143200	0.7935177252864000
400	0.7911592099551830	0.7887934732568360	0.7864205817787530	0.7840406012663500	0.7816535966298510	0.7792596319510830
400	0.7768587704902650	0.7744510746928000	0.7720366061960650	0.7696154258362040	0.7671875936549170	0.7647531689062500
400	0.7623122100633890	0.7598647748254510	0.7574109201242720	0.7549507021312000	0.7524841762638850	0.7500113971930730
400	0.7475324188493930	0.7450472944301500	0.7425560764061160	0.7400588165283200	0.7375555658348420	0.7350463746576000
400	0.7325312926291430	0.7300103686894420	0.7274836510926820	0.7249511874140500	0.7224130245565290	0.7198692087576890
400	0.7173197855964740	0.7147648000000000	0.7122042962503370	0.7096383179913110	0.7070669082352830	0.7044901093699500
400	0.7019079631651300	0.6993205107795570	0.6967277927676690	0.6941298490864000	0.6915267191019700	0.6889184415966790
400	0.6863050547756960	0.6836865962738500	0.6810631031624190	0.6784346119559260	0.6758011586189270	0.6731627785728000
400	0.6705195067025400	0.6678713773635480	0.6652184243884220	0.6625606810937500	0.6598981802868950	0.6572309542727950
400	0.6545590348607460	0.6518824533712000	0.6492012406425470	0.6465154270379170	0.6438250424519610	0.6411301163176500
400	0.6384306776130590	0.6357267548681640	0.6330183761716290	0.6303055691776000	0.6275883611124920	0.6248667787817860
400	0.6221408485768120	0.6194105964815500	0.6166760480794100	0.6139372285600320	0.6111941627260740	0.6084468750000000
400	0.6056953894308750	0.6029397297011550	0.6001799191334760	0.5974159806974500	0.5946479370164490	0.5918758103744020
400	0.5890996227225820	0.5863193956864000	0.5835351505721950	0.5807469083740240	0.5779546897804530	0.5751585151813500
400	0.5723584046746750	0.5695543780732710	0.5667464549116520	0.5639346544528010	0.5611189956949530	0.5582994973783930
400	0.5554761779922420	0.5526490557812510	0.5498181487525900	0.5469834746826400	0.5441450511237850	0.5413028954112010
400	0.5384570246696480	0.5356074558202620	0.5327542055873440	0.5298972905051510	0.5270367269246910	0.5241725310205090
400	0.5213047187974800	0.5184333060976010	0.5155583086067810	0.5126797418616310	0.5097976212562580	0.5069119620490520
400	0.5040227793694800	0.5011300882248790	0.4982339035072380	0.4953342400000020	0.4924311123848520	0.4895245352485000
400	0.4866145230894840	0.4837010903249520	0.4807842512974570	0.4778640202817480	0.4749404114915590	0.4720134390864030
400	0.4690831171783600	0.4661494598388700	0.4632124811055240	0.4602721949888530	0.4573286154791210	0.4543817565531170
400	0.4514316321809420	0.4484782563328030	0.4455216429858050	0.4425618061307390	0.4395987597788760	0.4366325179687530
400	0.4336630947729730	0.4306905043049860	0.4277147607258870	0.4247358782512040	0.4217538711576880	0.4187687537901080
400	0.4157805405680400	0.4127892459926540	0.4097948846535120	0.4067974712353560	0.4037970205248950	0.4007935474176040
400	0.3977870669245080	0.3947775941789780	0.3917651444435160	0.3887497331165540	0.3857313757392390	0.3827100880022250
400	0.3796858857524660	0.3766587850000050	0.3736288019247660	0.3705959528833470	0.3675602544158060	0.3645217232524550
400	0.3614803763206530	0.3584362307515940	0.3553893038870990	0.3523396132864050	0.3492871767329620	0.3462320122412160
400	0.3431741380634070	0.3401135726963550	0.3370503348882550	0.3339844436454640	0.3309159182392940	0.3278447782128060
400	0.3247710433875950	0.3216947338705860	0.3186158700608210	0.3155344726562560	0.3124505626605440	0.3093641613898330
400	0.3062752904795520	0.3031839718912060	0.3000902279191650	0.2969940811974550	0.2938955547065480	0.2907946717801570
400	0.2876914561120210	0.2845859317627020	0.2814781231663730	0.2783680551376070	0.2752557528781730	0.2721412419838240
400	0.2690245484510870	0.2659056986840570	0.2627847195011850	0.2596616381420720	0.2565364822742560	0.2534092800000070
400	0.2502800598631190	0.2471488508556940	0.2440156824249400	0.2408805844799580	0.2377435873985370	0.2346047220339410
400	0.2314640197217010	0.2283215122864080	0.2251772320485020	0.2220312118310630	0.2188834849666030	0.2157340853038580
400	0.2125830472145760	0.2094304056003100	0.2062761958992090	0.2031204540928090	0.1999632167128220	0.1968045208479320
400	0.1936444041505800	0.1904829048437590	0.1873200617278030	0.1841559141871800	0.1809905021972800	0.1778238663312090
400	0.1746560477665800	0.1714870882923010	0.1683170303153690	0.1651459168676590	0.1619737916127170	0.1588006988525490
400	0.1556266835344120	0.1524517912576100	0.1492760682802760	0.1460995615261710	0.1429223185914710	0.1397443877515600
400	0.1365658179678190	0.1333866588944180	0.1302069608851080	0.1270267750000100	0.1238461530124090	0.1206651474155400
400	0.1174838114293850	0.1143021990074610	0.1111203648436080	0.1079383643787870	0.1047562538078660	0.1015740900864110
400	0.0983919309374789	0.0952098348584094	0.0920278611276120	0.0888460698113613	0.0856645217705847	0.0824832786676566
400	0.0793024029731862	0.0761219579728113	0.0729420077739872	0.0697626173127786	0.0665838523606512	0.0634057795312617
400	0.0602284662872490	0.0570519809470261	0.0538763926915696	0.0507017715712120	0.0475281885124323	0.0443557153246479
400	0.0411844247070028	0.0380143902551622	0.0348456864681004	0.0316783887548951	0.0285125734415145	0.0253483177776124
400	0.0221856999433154	0.0190247990560168	0.0158656951771672	0.0127084693190624	0.0095532034516396	0.0063999805092644
400	0.00324888439752258	0	0	0	0	0
400	0	0	0	0	0	0
400	0	0	0	0	0	0
400	0	0	0	0	0	0
400	0	0	0	0	0	0
400	0	0	0	0	0	0
400	0	0	0	0	0	0
400	0	0	0	0	0	0
400	0	0	0	0	0	0
400	0	0	0	0	0	0
400	0	0	0	0	0	0
400	0	0	0	0	0	0
400	0	0	0	0	0	0
400	0	0	0	0	0	0
400	0	0	0	0	0	0
400	0	0	0	0	0	0
400	0	0	0	0	0	0
400	0	0	0	0	0	0
400	0	0	0	0	0	0
400	0	0	0	0	0	0
400	0	0	0	0	0	0
400	0	0	0	0	0	0
400	0	0	0	0	0	0
400	0	0	0	0	0	0
400	0	0	0	0	0	0
400	0	0	0	0	0	0
400	0	0	0	0	0	0
400	0	0	0	0	0	0
400	0	0	0	0	0	0
400	0	0	0	0	0	0
400	0	0	0	0	0	0
400	0	0	0	0	0	0
400	0	0	0	0	0	0
400	0	0	0	0	0	0
400	0	0	0	0	0	0
400	0	0	0	0	0	0
400	0	0	0	0	0	0
400	0	0	0	0	0	0
400	0	0	0	0	0	0
400	0	0	0	0	0	0
400	0	0	0	0	0	0
400	0	0	0	0	0	0
400	0	0	0	0	0	0
400	0	0	0	0	0	0
400	0	0	0	0	0	0
400	0	0	0	0	0	0
400	0	0	0	0	0	0
400	0	0	0	0	0	0
400	0	0	0	0	0	0
400	0	0	0	0	0	0
400	0	0	0	0	0	0
400	0	0	0	0	0	0
400	0	0	0	0	0	0
400	0	0	0	0	0	0
400	0	0	0	0	0	0
400	0	0	0	0	0	0
400	0	0	0	0	0	0
400	0	0	0	0	0	0
400	0	0	0	0	0	0
400	0	0	0	0	0	0
400	0	0	0	0	0	0
400	0	0	0	0	0	0
400	0	0	0	0	0	0
400	0	0	0	0	0	0
400	0	0	0	0	0	0
400	0	0	0	0	0	0
400	0	0	0	0	0	0
400	0	0	0	0	0	0
400	0	0	0	0	0	0
400	0	0	0	0	0	0
400	0	0	0	0	0	0
400	0	0	0	0	0	0
400	0	0	0	0	0	0
400	0	0	0	0	0	0
400	0	0	0	0	0	0
400	0	0	0	0	0	0
400	0	0	0	0	0	0
400	0	0	0	0	0	0
400	0	0	0	0	0	0
400	0	0	0	0	0	0
400	0	0	0	0	0	0
400	0	0	0	0	0	0



[CURVES]
;ID              	X-Value     	Y-Value

[CONTROLS]



[RULES]



[ENERGY]
 Global Efficiency  	75
 Global Price       	0
 Demand Charge      	0

[EMITTERS]
;Junction        	Coefficient

[QUALITY]
;Node            	InitQual

[SOURCES]
;Node            	Type        	Quality     	Pattern

[REACTIONS]
;Type     	Pipe/Tank       	Coefficient


[REACTIONS]
 Order Bulk            	1
 Order Tank            	1
 Order Wall            	1
 Global Bulk           	0
 Global Wall           	0
 Limiting Potential    	0
 Roughness Correlation 	0

[MIXING]
;Tank            	Model

[TIMES]
 Duration           	0:09 
 Hydraulic Timestep 	0:00:05 
 Quality Timestep   	0:05 
 Pattern Timestep   	0:00:01 
 Pattern Start      	0:00 
 Report Timestep    	1:00 
 Report Start       	0:00 
 Start ClockTime    	12 am
 Statistic          	NONE

[REPORT]
 Status             	Full
 Trials                 Yes
 Summary            	Yes
 Page               	0
 Nodes                  All
 Links                  All 

[OPTIONS]
 Flow_Units              	LPS
 Pressure_Units             METERS
 Headloss_Model           	D-W
 Specific_Gravity       	1
 Specific_Viscosity         1
 Maximum_Trials            	33
 Relative_Accuracy      	0.001
 Unbalanced              	Continue
 Demand_Pattern            	1
 Demand_Multiplier      	1.0
 Emitter_Exponent       	0.5
 Quality_Model            	None mg/L
 Specific_Diffusivity      	1
 Quality_Tolerance        	0.001
 Head_Tolerance             0.001
 Flow_Tolerance             0.001
 Flow_Change_Limit          0.001
 Step_Sizing                FULL
 VALVE_REP_TYPE             Toe
 Demand_Model               LOGISTIC
 MINIMUM_PRESSURE           0
 SERVICE_PRESSURE           177
 PRESSURE_EXPONENT          0.5
 Hyd_Solver                 CGGA
 Time_Weight                0.5
 TEMP_DISC_PARA             1

[COORDINATES]
;Node            	X-Coord           	Y-Coord
N3              	87.450            	6543.210          
N2              	961.930           	5658.440          
N5              	2649.180          	5658.440          
N4              	1414.360          	6965.590          
N6              	2361.110          	6965.020          
N7              	3750.550          	5656.400          
N8              	4091.790          	5653.120          
R1              	-529.840          	7427.980          

[VERTICES]
;Link            	X-Coord           	Y-Coord

[LABELS]
;X-Coord             Y-Coord             Label & Anchor Node
-149.180          	7047.330          	"P1"	
601.850           	6944.440          	"P2"	
478.400           	6296.300          	"P3"	
1887.860          	7170.780          	"P4"	
992.800           	6522.630          	"P5"	
1774.690          	5617.280          	"P6"	
3184.160          	5607.000          	"P7"	
2582.450          	6306.080          	"P8"	
1620.370          	6584.360          	"P9"	
-632.720          	7366.260          	"R1"	
-77.160           	6481.480          	"N3"	
1404.320          	7201.650          	"N4"	
2350.820          	7160.490          	"N6"	
859.050           	5576.130          	"N2"	
2677.610          	5561.250          	"N5"	
3636.830          	5596.710          	"VALVE"	
3667.700          	5864.200          	"N7"	
4048.350          	5853.910          	"N8"	

[BACKDROP]
  DIMENSIONS  	0.000             	0.000             	10000.000         	10000.000         
 UNITS          	None
 FILE           	
 OFFSET         	0.00            	0.00            

[END]
