[TITLE]


[JUNCTIONS]
;ID              	Elev        	Demand      	Pattern         
 N3              	0           	0           	                	;
 N2              	0           	25          	                	;
 N5              	0           	0           	                	;
 N4              	0           	25          	                	;
 N6              	0           	0           	                	;
 N7              	0           	0           	                	;
 N8              	0           	100         	                	;

[RESERVOIRS]
;ID              	Head        	Pattern         
 R1              	191         	                	;

[TANKS]
;ID              	Elevation   	InitLevel   	MinLevel    	MaxLevel    	Diameter    	MinVol      	VolCurve        	Overflow
 T1              	110         	10          	0           	20          	10          	0           	                	;
 T2              	110         	10          	0           	20          	15          	0           	                	;

[PIPES]
;ID              	Node1           	Node2           	Length      	Diameter    	Roughness   	MinorLoss   	Status
 P1              	R1              	N3              	610         	900         	0.3        	0           	Open  	;
 P2              	N3              	N4              	914         	750         	0.3        	0           	Open  	;
 P3              	N3              	N2              	610         	600         	0.3        	0           	Open  	;
 P4              	N4              	N6              	457         	450         	0.3        	0           	Open  	;
 P5              	N4              	N2              	549         	450         	0.3        	0           	Open  	;
 P6              	N5              	N2              	671         	750         	0.3        	0           	Open  	;
 P7              	N5              	N7              	1000        	900         	0.3        	0           	Open  	;
 P8              	N6              	N5              	457         	600         	0.3        	0           	Open  	;
 P9              	N2              	N6              	488         	450         	0.3        	0           	Open  	;
 P10             	N6              	T1              	400        	    400          	0.3         0           	Open  	;
 P11             	N8              	T2              	400        	    400         	0.3         0           	Open  	;

[PUMPS]
;ID              	Node1           	Node2           	Parameters

[VALVES]
;ID              	Node1           	Node2           	Diameter    	Type	Setting  MinorLoss   Pattern   
 VALVE           	N7              	N8              	400         	CCV 	1       	0          400	;

[TAGS]

[DEMANDS]
;Junction        	Demand      	Pattern         	Category

[STATUS]
;ID              	Status/Setting


[PATTERNS]
;ID              	Multipliers

10	1	1	1	1	1	1
10	1	1	1	1	0.84366621	0.69091456
10	0.54582661	0.41206656	0.29288125	0.19110016	0.10913541	0.04898176
10	0.01221661	0	0	0	0	0
10	0	0	0	0	0	0
10	0	0	0	0	0	0
10	0	0	0	0	0	0
10	0	0	0	0	0	0
10	0	0	0	0	0	0
10	0	0	0	0	0	0
10	0	0	0	0	0	0
10	0	0	0	0	0	0
10	0	0	0	0	0	0
10	0	0	0	0	0	0
10	0	0	0	0	0	0
10	0	0	0	0	0	0
10	0	0	0	0	0	0
10	0	0	0	0	0	0
10	0	0	0	0	0	0
10	0	0	0	0	0	0
10	0	0	0	0	0	0
10	0	0	0	0	0	0
10	0	0	0	0	0	0
10	0	0	0	0	0	0
10	0	0	0	0	0	0
10	0	0	0	0	0	0
10	0	0	0	0	0	0
10	0	0	0	0	0	0
10	0	0	0	0	0	0
10	0	0	0	0	0	0
10	0	0	0	0	0	0
10	0	0	0	0	0	0
10	0	0	0	0	0	0
10	0	0	0	0	0	0
10	0	0	0	0	0	0
10	0	0	0	0	0	0
10	0	0	0	0	0	0
10	0	0	0	0	0	0
10	0	0	0	0	0	0
10	0	0	0	0	0	0
10	0	0	0	0	0	0
10	0	0	0	0	0	0
10	0	0	0	0	0	0
10	0	0	0	0	0	0
10	0	0	0	0	0	0
10	0	0	0	0	0	0
10	0	0	0	0	0	0
10	0	0	0	0	0	0
10	0	0	0	0	0	0
10	0	0	0	0	0	0
10	0	0	0	0	0	0
10	0	0	0	0	0	0
10	0	0	0	0	0	0
10	0	0	0	0	0	0
10	0	0	0	0	0	0
10	0	0	0	0	0	0
10	0	0	0	0	0	0
10	0	0	0	0	0	0
10	0	0	0	0	0	0
10	0	0	0	0	0	0
10	0	0	0	0	0	0
10	0	0	0	0	0	0
10	0	0	0	0	0	0
10	0	0	0	0	0	0
10	0	0	0	0	0	0
10	0	0	0	0	0	0
10	0	0	0	0	0	0
10	0	0	0	0	0	0
10	0	0	0	0	0	0
10	0	0	0	0	0	0
10	0	0	0	0	0	0
10	0	0	0	0	0	0
10	0	0	0	0	0	0
10	0	0	0	0	0	0
10	0	0	0	0	0	0
10	0	0	0	0	0	0
10	0	0	0	0	0	0
10	0	0	0	0	0	0
10	0	0	0	0	0	0
10	0	0	0	0	0	0
10	0	0	0	0	0	0
10	0	0	0	0	0	0
10	0	0	0	0	0	0
10	0	0	0	0	0	0
10	0	0	0	0	0	0
10	0	0	0	0	0	0
10	0	0	0	0	0	0
10	0	0	0	0	0	0
10	0	0	0	0	0	0
10	0	0	0	0	0	0
10	0	0	0	0	0	0
10	0	0	0	0	0	0
10	0	0	0	0	0	0
10	0	0	0	0	0	0
10	0	0	0	0	0	0
10	0	0	0	0	0	0
10	0	0	0	0	0	0
10	0	0	0	0	0	0
10	0	0	0	0	0	0
10	0	0	0	0	0	0
10	0	0	0	0	0	0
10	0	0	0	0	0	0
10	0	0	0	0	0	0
10	0	0	0	0	0	0
10	0	0	0	0	0	0
10	0	0	0	0	0	0
10	0	0	0	0	0	0
10	0	0	0	0	0	0
10	0	0	0	0	0	0
10	0	0	0	0	0	0
10	0	0	0	0	0	0
10	0	0	0	0	0	0
10	0	0	0	0	0	0
10	0	0	0	0	0	0
10	0	0	0	0	0	0
10	0	0	0	0	0	0
10	0	0	0	0	0	0
10	0	0	0	0	0	0
10	0	0	0	0	0	0
10	0	0	0	0	0	0
10	0	0	0	0	0	0
10	0	0	0	0	0	0
10	0	0	0	0	0	0
10	0	0	0	0	0	0
10	0	0	0	0	0	0
10	0	0	0	0	0	0
10	0	0	0	0	0	0
10	0	0	0	0	0	0
10	0	0	0	0	0	0
10	0	0	0	0	0	0
10	0	0	0	0	0	0
10	0	0	0	0	0	0
10	0	0	0	0	0	0
10	0	0	0	0	0	0
10	0	0	0	0	0	0
10	0	0	0	0	0	0
10	0	0	0	0	0	0
10	0	0	0	0	0	0
10	0	0	0	0	0	0
10	0	0	0	0	0	0
10	0	0	0	0	0	0
10	0	0	0	0	0	0
10	0	0	0	0	0	0
10	0	0	0	0	0	0
10	0	0	0	0	0	0
10	0	0	0	0	0	0
10	0	0	0	0	0	0
10	0	0	0	0	0	0
10	0	0	0	0	0	0
10	0	0	0	0	0	0


50	1	1	1	1	1	1
50	1	1	1	1	0.9686566089760	0.9373152092160
50	0.9060124598560	0.8747843522560	0.8436662100000	0.8126926888960	0.7818977769760	0.7513147944960
50	0.7209763939360	0.6909145600000	0.6611606096160	0.6317451919360	0.6026982883360	0.5740492124160
50	0.5458266100000	0.5180584591360	0.4907720700960	0.4639940853760	0.4377504796960	0.4120665600000
50	0.3869669654560	0.3624756674560	0.3386159696160	0.3154105077760	0.2928812500000	0.2710494965760
50	0.2499358800160	0.2295603650560	0.2099422486560	0.1911001600000	0.1730520604960	0.1558152437760
50	0.1394063356960	0.1238412943360	0.1091354100000	0.0953033052160	0.0823589347360	0.0703155855360
50	0.0591858768160	0.0489817600000	0.0397145187360	0.0313947688960	0.0240324585760	0.0176368680960
50	0.0122166100000	0.0077796290560	0.0043332022560	0.0018839388160	0.0004377801760	0
50	0	0	0	0	0	0
50	0	0	0	0	0	0
50	0	0	0	0	0	0
50	0	0	0	0	0	0
50	0	0	0	0	0	0
50	0	0	0	0	0	0
50	0	0	0	0	0	0
50	0	0	0	0	0	0
50	0	0	0	0	0	0
50	0	0	0	0	0	0
50	0	0	0	0	0	0
50	0	0	0	0	0	0
50	0	0	0	0	0	0
50	0	0	0	0	0	0
50	0	0	0	0	0	0
50	0	0	0	0	0	0
50	0	0	0	0	0	0
50	0	0	0	0	0	0
50	0	0	0	0	0	0
50	0	0	0	0	0	0
50	0	0	0	0	0	0
50	0	0	0	0	0	0
50	0	0	0	0	0	0
50	0	0	0	0	0	0
50	0	0	0	0	0	0
50	0	0	0	0	0	0
50	0	0	0	0	0	0
50	0	0	0	0	0	0
50	0	0	0	0	0	0
50	0	0	0	0	0	0
50	0	0	0	0	0	0
50	0	0	0	0	0	0
50	0	0	0	0	0	0
50	0	0	0	0	0	0
50	0	0	0	0	0	0
50	0	0	0	0	0	0
50	0	0	0	0	0	0
50	0	0	0	0	0	0
50	0	0	0	0	0	0
50	0	0	0	0	0	0
50	0	0	0	0	0	0
50	0	0	0	0	0	0
50	0	0	0	0	0	0
50	0	0	0	0	0	0
50	0	0	0	0	0	0
50	0	0	0	0	0	0
50	0	0	0	0	0	0
50	0	0	0	0	0	0
50	0	0	0	0	0	0
50	0	0	0	0	0	0
50	0	0	0	0	0	0
50	0	0	0	0	0	0
50	0	0	0	0	0	0
50	0	0	0	0	0	0
50	0	0	0	0	0	0
50	0	0	0	0	0	0
50	0	0	0	0	0	0
50	0	0	0	0	0	0
50	0	0	0	0	0	0
50	0	0	0	0	0	0
50	0	0	0	0	0	0
50	0	0	0	0	0	0
50	0	0	0	0	0	0
50	0	0	0	0	0	0
50	0	0	0	0	0	0
50	0	0	0	0	0	0
50	0	0	0	0	0	0
50	0	0	0	0	0	0
50	0	0	0	0	0	0
50	0	0	0	0	0	0
50	0	0	0	0	0	0
50	0	0	0	0	0	0
50	0	0	0	0	0	0
50	0	0	0	0	0	0
50	0	0	0	0	0	0
50	0	0	0	0	0	0
50	0	0	0	0	0	0
50	0	0	0	0	0	0
50	0	0	0	0	0	0
50	0	0	0	0	0	0
50	0	0	0	0	0	0
50	0	0	0	0	0	0
50	0	0	0	0	0	0
50	0	0	0	0	0	0
50	0	0	0	0	0	0
50	0	0	0	0	0	0
50	0	0	0	0	0	0
50	0	0	0	0	0	0
50	0	0	0	0	0	0
50	0	0	0	0	0	0
50	0	0	0	0	0	0
50	0	0	0	0	0	0
50	0	0	0	0	0	0
50	0	0	0	0	0	0
50	0	0	0	0	0	0
50	0	0	0	0	0	0
50	0	0	0	0	0	0
50	0	0	0	0	0	0
50	0	0	0	0	0	0
50	0	0	0	0	0	0
50	0	0	0	0	0	0
50	0	0	0	0	0	0
50	0	0	0	0	0	0
50	0	0	0	0	0	0
50	0	0	0	0	0	0
50	0	0	0	0	0	0
50	0	0	0	0	0	0
50	0	0	0	0	0	0
50	0	0	0	0	0	0
50	0	0	0	0	0	0
50	0	0	0	0	0	0
50	0	0	0	0	0	0
50	0	0	0	0	0	0
50	0	0	0	0	0	0
50	0	0	0	0	0	0
50	0	0	0	0	0	0
50	0	0	0	0	0	0
50	0	0	0	0	0	0
50	0	0	0	0	0	0
50	0	0	0	0	0	0
50	0	0	0	0	0	0
50	0	0	0	0	0	0
50	0	0	0	0	0	0
50	0	0	0	0	0	0
50	0	0	0	0	0	0
50	0	0	0	0	0	0
50	0	0	0	0	0	0
50	0	0	0	0	0	0
50	0	0	0	0	0	0
50	0	0	0	0	0	0
50	0	0	0	0	0	0
50	0	0	0	0	0	0
50	0	0	0	0	0	0
50	0	0	0	0	0	0
50	0	0	0	0	0	0
50	0	0	0	0	0	0
50	0	0	0	0	0	0
50	0	0	0	0	0	0
50	0	0	0	0	0	0
50	0	0	0	0	0	0


100	1	1	1	1	1	1
100	1	1	1	1	0.9843303728610	0.9686566089760
100	0.9529833533410	0.9373152092160	0.9216567381250	0.9060124598560	0.8903868524610	0.8747843522560
100	0.8592093538210	0.8436662100000	0.8281592319010	0.8126926888960	0.7972708086210	0.7818977769760
100	0.7665777381250	0.7513147944960	0.7361130067810	0.7209763939360	0.7059089331810	0.6909145600000
100	0.6759971681410	0.6611606096160	0.6464086947010	0.6317451919360	0.6171738281250	0.6026982883360
100	0.5883222159010	0.5740492124160	0.5598828377410	0.5458266100000	0.5318840055810	0.5180584591360
100	0.5043533635810	0.4907720700960	0.4773178881250	0.4639940853760	0.4508038878210	0.4377504796960
100	0.4248370035010	0.4120665600000	0.3994422082210	0.3869669654560	0.3746438072610	0.3624756674560
100	0.3504654381250	0.3386159696160	0.3269300705410	0.3154105077760	0.3040600064610	0.2928812500000
100	0.2818768800610	0.2710494965760	0.2604016577410	0.2499358800160	0.2396546381250	0.2295603650560
100	0.2196554520610	0.2099422486560	0.2004230626210	0.1911001600000	0.1819757651010	0.1730520604960
100	0.1643311870210	0.1558152437760	0.1475062881250	0.1394063356960	0.1315173603810	0.1238412943360
100	0.1163800279810	0.1091354100000	0.1021092473410	0.0953033052160	0.0887193071010	0.0823589347360
100	0.0762238281250	0.0703155855360	0.0646357635010	0.0591858768160	0.0539673985410	0.0489817600000
100	0.0442303507810	0.0397145187360	0.0354355699810	0.0313947688960	0.0275933381250	0.0240324585760
100	0.0207132694210	0.0176368680960	0.0148043103010	0.0122166100000	0.0098747394210	0.0077796290560
100	0.0059321676610	0.0043332022560	0.0029835381250	0.0018839388160	0.0010351261410	0.0004377801760
100	0.0000925392610	0	0	0	0	0
100	0	0	0	0	0	0
100	0	0	0	0	0	0
100	0	0	0	0	0	0
100	0	0	0	0	0	0
100	0	0	0	0	0	0
100	0	0	0	0	0	0
100	0	0	0	0	0	0
100	0	0	0	0	0	0
100	0	0	0	0	0	0
100	0	0	0	0	0	0
100	0	0	0	0	0	0
100	0	0	0	0	0	0
100	0	0	0	0	0	0
100	0	0	0	0	0	0
100	0	0	0	0	0	0
100	0	0	0	0	0	0
100	0	0	0	0	0	0
100	0	0	0	0	0	0
100	0	0	0	0	0	0
100	0	0	0	0	0	0
100	0	0	0	0	0	0
100	0	0	0	0	0	0
100	0	0	0	0	0	0
100	0	0	0	0	0	0
100	0	0	0	0	0	0
100	0	0	0	0	0	0
100	0	0	0	0	0	0
100	0	0	0	0	0	0
100	0	0	0	0	0	0
100	0	0	0	0	0	0
100	0	0	0	0	0	0
100	0	0	0	0	0	0
100	0	0	0	0	0	0
100	0	0	0	0	0	0
100	0	0	0	0	0	0
100	0	0	0	0	0	0
100	0	0	0	0	0	0
100	0	0	0	0	0	0
100	0	0	0	0	0	0
100	0	0	0	0	0	0
100	0	0	0	0	0	0
100	0	0	0	0	0	0
100	0	0	0	0	0	0
100	0	0	0	0	0	0
100	0	0	0	0	0	0
100	0	0	0	0	0	0
100	0	0	0	0	0	0
100	0	0	0	0	0	0
100	0	0	0	0	0	0
100	0	0	0	0	0	0
100	0	0	0	0	0	0
100	0	0	0	0	0	0
100	0	0	0	0	0	0
100	0	0	0	0	0	0
100	0	0	0	0	0	0
100	0	0	0	0	0	0
100	0	0	0	0	0	0
100	0	0	0	0	0	0
100	0	0	0	0	0	0
100	0	0	0	0	0	0
100	0	0	0	0	0	0
100	0	0	0	0	0	0
100	0	0	0	0	0	0
100	0	0	0	0	0	0
100	0	0	0	0	0	0
100	0	0	0	0	0	0
100	0	0	0	0	0	0
100	0	0	0	0	0	0
100	0	0	0	0	0	0
100	0	0	0	0	0	0
100	0	0	0	0	0	0
100	0	0	0	0	0	0
100	0	0	0	0	0	0
100	0	0	0	0	0	0
100	0	0	0	0	0	0
100	0	0	0	0	0	0
100	0	0	0	0	0	0
100	0	0	0	0	0	0
100	0	0	0	0	0	0
100	0	0	0	0	0	0
100	0	0	0	0	0	0
100	0	0	0	0	0	0
100	0	0	0	0	0	0
100	0	0	0	0	0	0
100	0	0	0	0	0	0
100	0	0	0	0	0	0
100	0	0	0	0	0	0
100	0	0	0	0	0	0
100	0	0	0	0	0	0
100	0	0	0	0	0	0
100	0	0	0	0	0	0
100	0	0	0	0	0	0
100	0	0	0	0	0	0
100	0	0	0	0	0	0
100	0	0	0	0	0	0
100	0	0	0	0	0	0
100	0	0	0	0	0	0
100	0	0	0	0	0	0
100	0	0	0	0	0	0
100	0	0	0	0	0	0
100	0	0	0	0	0	0
100	0	0	0	0	0	0
100	0	0	0	0	0	0
100	0	0	0	0	0	0
100	0	0	0	0	0	0
100	0	0	0	0	0	0
100	0	0	0	0	0	0
100	0	0	0	0	0	0
100	0	0	0	0	0	0
100	0	0	0	0	0	0
100	0	0	0	0	0	0
100	0	0	0	0	0	0
100	0	0	0	0	0	0
100	0	0	0	0	0	0
100	0	0	0	0	0	0
100	0	0	0	0	0	0
100	0	0	0	0	0	0
100	0	0	0	0	0	0
100	0	0	0	0	0	0
100	0	0	0	0	0	0
100	0	0	0	0	0	0
100	0	0	0	0	0	0
100	0	0	0	0	0	0
100	0	0	0	0	0	0
100	0	0	0	0	0	0
100	0	0	0	0	0	0
100	0	0	0	0	0	0
100	0	0	0	0	0	0
100	0	0	0	0	0	0
100	0	0	0	0	0	0
100	0	0	0	0	0	0


200	1	1	1	1	1	1
200	1	1	1	1	0.99216599546631200000	0.98433037286100000000
200	0.97649371672131200000	0.96865660897600000000	0.96081962894531200000	0.95298335334100000000	0.94514835626631300000	0.93731520921600000000
200	0.92948448107631300000	0.92165673812500000000	0.91383254403131300000	0.90601245985600000000	0.89819704405131300000	0.89038685246100000000
200	0.88258243832031200000	0.87478435225600000000	0.86699314228631300000	0.85920935382100000000	0.85143352966131200000	0.84366621000000000000
200	0.83590793242131200000	0.82815923190100000000	0.82042064080631200000	0.81269268889600000000	0.80497590332031200000	0.79727080862100000000
200	0.78957792673131200000	0.78189777697600000000	0.77423087607131200000	0.76657773812500000000	0.75893887463631200000	0.75131479449600000000
200	0.74370600398631200000	0.73611300678100000000	0.72853630394531200000	0.72097639393600000000	0.71343377260131200000	0.70590893318100000000
200	0.69840236630631200000	0.69091456000000000000	0.68344599967631200000	0.67599716814100000000	0.66856854559131200000	0.66116060961600000000
200	0.65377383519531200000	0.64640869470100000000	0.63906565789631200000	0.63174519193600000000	0.62444776136631200000	0.61717382812500000000
200	0.60992385154131200000	0.60269828833600000000	0.59549759262131200000	0.58832221590100000000	0.58117260707031200000	0.57404921241600000000
200	0.56695247561631200000	0.55988283774100000000	0.55284073725131200000	0.54582661000000000000	0.53884088923131200000	0.53188400558100000000
200	0.52495638707631200000	0.51805845913600000000	0.51119064457031200000	0.50435336358100000000	0.49754703376131200000	0.49077207009600000000
200	0.48402888496131200000	0.47731788812500000000	0.47063948674631200000	0.46399408537600000000	0.45738208595631200000	0.45080388782100000000
200	0.44425988769531200000	0.43775047969600000000	0.43127605533131200000	0.42483700350100000000	0.41843371049631200000	0.41206656000000000000
200	0.40573593308631200000	0.39944220822100000000	0.39318576126131200000	0.38696696545600000000	0.38078619144531200000	0.37464380726100000000
200	0.36854017832631200000	0.36247566745600000000	0.35645063485631200000	0.35046543812500000000	0.34452043225131200000	0.33861596961600000000
200	0.33275239999131200000	0.32693007054100000000	0.32114932582031200000	0.31541050777600000000	0.30971395574631200000	0.30406000646100000000
200	0.29844899404131200000	0.29288125000000000000	0.28735710324131200000	0.28187688006100000000	0.27644090414631200000	0.27104949657600000000
200	0.26570297582031200000	0.26040165774100000000	0.25514585559131200000	0.24993588001600000000	0.24477203905131200000	0.23965463812500000000
200	0.23458398005631200000	0.22956036505600000000	0.22458409072631200000	0.21965545206100000000	0.21477474144531200000	0.20994224865600000000
200	0.20515826086131200000	0.20042306262100000000	0.19573693588631200000	0.19110016000000000000	0.18651301169631200000	0.18197576510100000000
200	0.17748869173131200000	0.17305206049600000000	0.16866613769531200000	0.16433118702100000000	0.16004746955631200000	0.15581524377600000000
200	0.15163476554631200000	0.14750628812500000000	0.14343006216131200000	0.13940633569600000000	0.13543535416131200000	0.13151736038100000000
200	0.12765259457031200000	0.12384129433600000000	0.12008369467631200000	0.11638002798100000000	0.11273052403131200000	0.10913541000000000000
200	0.10559491045131200000	0.10210924734100000000	0.09867864001631220000	0.09530330521599970000	0.09198345707031200000	0.08871930710099960000
200	0.08551106422131220000	0.08235893473599960000	0.07926312234131220000	0.07622382812499970000	0.07324125056631230000	0.07031558553599980000
200	0.06744702629631210000	0.06463576350099950000	0.06188198519531210000	0.05918587681599960000	0.05654762119131220000	0.05396739854099970000
200	0.05144538647631220000	0.04898175999999990000	0.04657669150631220000	0.04423035078099960000	0.04194290500131210000	0.03971451873599960000
200	0.03754535394531230000	0.03543556998099980000	0.03338532358631230000	0.03139476889599990000	0.02946405743631220000	0.02759333812499980000
200	0.02578275727131230000	0.02403245857599970000	0.02234258313131230000	0.02071326942099980000	0.01914465332031230000	0.01763686809599980000
200	0.01619004440631230000	0.01480431030099960000	0.01347979122131230000	0.01221660999999990000	0.01101488686131220000	0.00987473942099981000
200	0.00879628268631238000	0.00777962905599994000	0.00682488832031225000	0.00593216766099980000	0.00510157165131231000	0.00433320225599987000
200	0.00362715883131237000	0.00298353812499985000	0.00240243427631248000	0.00188393881600002000	0.00142814066631236000	0.00103512614099988000
200	0.00070497894531240700	0.00043778017599993600	0.00023360832131247300	0.00009253926100005750	0.00001464626631242360	0
200	0	0	0	0	0	0
200	0	0	0	0	0	0
200	0	0	0	0	0	0
200	0	0	0	0	0	0
200	0	0	0	0	0	0
200	0	0	0	0	0	0
200	0	0	0	0	0	0
200	0	0	0	0	0	0
200	0	0	0	0	0	0
200	0	0	0	0	0	0
200	0	0	0	0	0	0
200	0	0	0	0	0	0
200	0	0	0	0	0	0
200	0	0	0	0	0	0
200	0	0	0	0	0	0
200	0	0	0	0	0	0
200	0	0	0	0	0	0
200	0	0	0	0	0	0
200	0	0	0	0	0	0
200	0	0	0	0	0	0
200	0	0	0	0	0	0
200	0	0	0	0	0	0
200	0	0	0	0	0	0
200	0	0	0	0	0	0
200	0	0	0	0	0	0
200	0	0	0	0	0	0
200	0	0	0	0	0	0
200	0	0	0	0	0	0
200	0	0	0	0	0	0
200	0	0	0	0	0	0
200	0	0	0	0	0	0
200	0	0	0	0	0	0
200	0	0	0	0	0	0
200	0	0	0	0	0	0
200	0	0	0	0	0	0
200	0	0	0	0	0	0
200	0	0	0	0	0	0
200	0	0	0	0	0	0
200	0	0	0	0	0	0
200	0	0	0	0	0	0
200	0	0	0	0	0	0
200	0	0	0	0	0	0
200	0	0	0	0	0	0
200	0	0	0	0	0	0
200	0	0	0	0	0	0
200	0	0	0	0	0	0
200	0	0	0	0	0	0
200	0	0	0	0	0	0
200	0	0	0	0	0	0
200	0	0	0	0	0	0
200	0	0	0	0	0	0
200	0	0	0	0	0	0
200	0	0	0	0	0	0
200	0	0	0	0	0	0
200	0	0	0	0	0	0
200	0	0	0	0	0	0
200	0	0	0	0	0	0
200	0	0	0	0	0	0
200	0	0	0	0	0	0
200	0	0	0	0	0	0
200	0	0	0	0	0	0
200	0	0	0	0	0	0
200	0	0	0	0	0	0
200	0	0	0	0	0	0
200	0	0	0	0	0	0
200	0	0	0	0	0	0
200	0	0	0	0	0	0
200	0	0	0	0	0	0
200	0	0	0	0	0	0
200	0	0	0	0	0	0
200	0	0	0	0	0	0
200	0	0	0	0	0	0
200	0	0	0	0	0	0
200	0	0	0	0	0	0
200	0	0	0	0	0	0
200	0	0	0	0	0	0
200	0	0	0	0	0	0
200	0	0	0	0	0	0
200	0	0	0	0	0	0
200	0	0	0	0	0	0
200	0	0	0	0	0	0
200	0	0	0	0	0	0
200	0	0	0	0	0	0
200	0	0	0	0	0	0
200	0	0	0	0	0	0
200	0	0	0	0	0	0
200	0	0	0	0	0	0
200	0	0	0	0	0	0
200	0	0	0	0	0	0
200	0	0	0	0	0	0
200	0	0	0	0	0	0
200	0	0	0	0	0	0
200	0	0	0	0	0	0
200	0	0	0	0	0	0
200	0	0	0	0	0	0
200	0	0	0	0	0	0
200	0	0	0	0	0	0
200	0	0	0	0	0	0
200	0	0	0	0	0	0
200	0	0	0	0	0	0
200	0	0	0	0	0	0
200	0	0	0	0	0	0
200	0	0	0	0	0	0
200	0	0	0	0	0	0
200	0	0	0	0	0	0
200	0	0	0	0	0	0
200	0	0	0	0	0	0
200	0	0	0	0	0	0
200	0	0	0	0	0	0
200	0	0	0	0	0	0
200	0	0	0	0	0	0
200	0	0	0	0	0	0
200	0	0	0	0	0	0
200	0	0	0	0	0	0
200	0	0	0	0	0	0


400	1	1	1	1	1	1
400	1	1	1	1	0.99608323662758200000	0.99216599546631200000
400	0.98824834982789500000	0.98433037286100000000	0.98041213755127000000	0.97649371672131200000	0.97257518303070700000	0.96865660897600000000
400	0.96473806689070700000	0.96081962894531200000	0.95690136714727000000	0.95298335334100000000	0.94906565920789500000	0.94514835626631300000
400	0.94123151587158200000	0.93731520921600000000	0.93339950732883200000	0.92948448107631300000	0.92557020116164500000	0.92165673812500000000
400	0.91774416234352000000	0.91383254403131200000	0.90992195323945700000	0.90601245985600000000	0.90210413360595700000	0.89819704405131300000
400	0.89429126059101900000	0.89038685246100000000	0.88648388873414500000	0.88258243832031200000	0.87868256996633200000	0.87478435225600000000
400	0.87088785361008200000	0.86699314228631200000	0.86310028637939500000	0.85920935382100000000	0.85532041237977000000	0.85143352966131200000
400	0.84754877310820700000	0.84366621000000000000	0.83978590745320700000	0.83590793242131200000	0.83203235169476900000	0.82815923190100000000
400	0.82428863950439400000	0.82042064080631200000	0.81655530194508200000	0.81269268889600000000	0.80883286747133200000	0.80497590332031200000
400	0.80112186192914400000	0.79727080862100000000	0.79342280855601900000	0.78957792673131200000	0.78573622798095700000	0.78189777697600000000
400	0.77806263822445700000	0.77423087607131200000	0.77040255469851900000	0.76657773812500000000	0.76275649020664400000	0.75893887463631200000
400	0.75512495494383200000	0.75131479449600000000	0.74750845649658200000	0.74370600398631200000	0.73990749984289400000	0.73611300678100000000
400	0.73232258735226900000	0.72853630394531200000	0.72475421878570700000	0.72097639393600000000	0.71720289129570700000	0.71343377260131200000
400	0.70966909942626900000	0.70590893318100000000	0.70215333511289400000	0.69840236630631200000	0.69465608768258200000	0.69091456000000000000
400	0.68717784385383200000	0.68344599967631200000	0.67971908773664400000	0.67599716814100000000	0.67228030083251900000	0.66856854559131200000
400	0.66486196203445700000	0.66116060961600000000	0.65746454762695700000	0.65377383519531200000	0.65008853128601900000	0.64640869470100000000
400	0.64273438407914400000	0.63906565789631200000	0.63540257446533200000	0.63174519193600000000	0.62809356829508200000	0.62444776136631200000
400	0.62080782881039400000	0.61717382812500000000	0.61354581664476900000	0.60992385154131200000	0.60630798982320700000	0.60269828833600000000
400	0.59909480376220700000	0.59549759262131200000	0.59190671126976900000	0.58832221590100000000	0.58474416254539400000	0.58117260707031200000
400	0.57760760518008200000	0.57404921241600000000	0.57049748415633200000	0.56695247561631200000	0.56341424184814400000	0.55988283774100000000
400	0.55635831802101900000	0.55284073725131200000	0.54933014983195700000	0.54582661000000000000	0.54233017182945700000	0.53884088923131200000
400	0.53535881595351900000	0.53188400558100000000	0.52841651153564400000	0.52495638707631200000	0.52150368529883200000	0.51805845913600000000
400	0.51462076135758200000	0.51119064457031200000	0.50776816121789400000	0.50435336358100000000	0.50094630377726900000	0.49754703376131200000
400	0.49415560532470700000	0.49077207009600000000	0.48739647954070700000	0.48402888496131200000	0.48066933749726900000	0.47731788812500000000
400	0.47397458765789400000	0.47063948674631200000	0.46731263587758200000	0.46399408537600000000	0.46068388540283200000	0.45738208595631200000
400	0.45408873687164400000	0.45080388782100000000	0.44752758831351900000	0.44425988769531200000	0.44100083514945700000	0.43775047969600000000
400	0.43450887019195700000	0.43127605533131200000	0.42805208364501900000	0.42483700350100000000	0.42163086310414400000	0.41843371049631200000
400	0.41524559355633200000	0.41206656000000000000	0.40889665738008200000	0.40573593308631200000	0.40258443434539400000	0.39944220822100000000
400	0.39630930161376900000	0.39318576126131200000	0.39007163373820700000	0.38696696545600000000	0.38387180266320700000	0.38078619144531200000
400	0.37771017772476900000	0.37464380726100000000	0.37158712565039400000	0.36854017832631200000	0.36550301055908200000	0.36247566745600000000
400	0.35945819396133200000	0.35645063485631200000	0.35345303475914400000	0.35046543812500000000	0.34748788924601900000	0.34452043225131200000
400	0.34156311110695700000	0.33861596961600000000	0.33567905141845700000	0.33275239999131200000	0.32983605864851900000	0.32693007054100000000
400	0.32403447865664400000	0.32114932582031200000	0.31827465469383200000	0.31541050777600000000	0.31255692740258200000	0.30971395574631200000
400	0.30688163481689400000	0.30406000646100000000	0.30124911236226900000	0.29844899404131200000	0.29565969285570700000	0.29288125000000000000
400	0.29011370650570700000	0.28735710324131200000	0.28461148091226900000	0.28187688006100000000	0.27915334106689400000	0.27644090414631300000
400	0.27373960935258200000	0.27104949657600000000	0.26837060554383200000	0.26570297582031300000	0.26304664680664500000	0.26040165774100000000
400	0.25776804769852000000	0.25514585559131300000	0.25253512016845700000	0.24993588001600100000	0.24734817355695800000	0.24477203905131300000
400	0.24220751459602000000	0.23965463812500100000	0.23711344740914500000	0.23458398005631300000	0.23206627351133300000	0.22956036505600100000
400	0.22706629180908300000	0.22458409072631300000	0.22211379860039600000	0.21965545206100100000	0.21720908757477100000	0.21477474144531400000
400	0.21235244981320800000	0.20994224865600100000	0.20754417378820800000	0.20515826086131400000	0.20278454536377100000	0.20042306262100200000
400	0.19807384779539600000	0.19573693588631400000	0.19341236173008400000	0.19110016000000200000	0.18880036520633400000	0.18651301169631400000
400	0.18423813365414600000	0.18197576510100200000	0.17972593989502100000	0.17748869173131400000	0.17526405414195900000	0.17305206049600200000
400	0.17085274399945900000	0.16866613769531400000	0.16649227446352200000	0.16433118702100200000	0.16218290792164700000	0.16004746955631500000
400	0.15792490415283400000	0.15581524377600200000	0.15371852032758400000	0.15163476554631500000	0.14956401100789700000	0.14750628812500200000
400	0.14546162814727200000	0.14343006216131500000	0.14141162109070900000	0.13940633569600200000	0.13741423657471000000	0.13543535416131500000
400	0.13346971872727200000	0.13151736038100200000	0.12957830906789700000	0.12765259457031500000	0.12574024650758500000	0.12384129433600300000
400	0.12195576734883500000	0.12008369467631500000	0.11822510528564700000	0.11638002798100300000	0.11454849140352200000	0.11273052403131500000
400	0.11092615417946000000	0.10913541000000300000	0.10735831948196000000	0.10559491045131500000	0.10384521057102200000	0.10210924734100300000
400	0.10038704809814800000	0.09867864001631530000	0.09698405010633490000	0.09530330521600290000	0.09363643203008500000	0.09198345707031550000
400	0.09034440669539760000	0.08871930710100280000	0.08710818431977240000	0.08551106422131550000	0.08392797251221010000	0.08235893473600300000
400	0.08080397627321010000	0.07926312234131540000	0.07773639799477250000	0.07622382812500290000	0.07472543746039760000	0.07324125056631560000
400	0.07177129184508490000	0.07031558553600290000	0.06887415571533500000	0.06744702629631560000	0.06603422102914760000	0.06463576350100310000
400	0.06325167713602250000	0.06188198519531540000	0.06052671077696000000	0.05918587681600300000	0.05785950608446000000	0.05654762119131560000
400	0.05525024458252240000	0.05396739854100300000	0.05269910518664740000	0.05144538647631550000	0.05020626420383510000	0.04898176000000300000
400	0.04777189533258490000	0.04657669150631540000	0.04539616966289750000	0.04423035078100290000	0.04307925567627250000	0.04194290500131550000
400	0.04082131924570990000	0.03971451873600280000	0.03862252363570980000	0.03754535394531530000	0.03648302950227240000	0.03543556998100280000
400	0.03440299489289720000	0.03338532358631520000	0.03238257524658470000	0.03139476889600280000	0.03042192339383480000	0.02946405743631510000
400	0.02852118955664710000	0.02759333812500260000	0.02668052134852210000	0.02578275727131520000	0.02490006377445960000	0.02403245857600240000
400	0.02317995923095950000	0.02234258313131490000	0.02152034750602190000	0.02071326942100250000	0.01992136577914690000	0.01914465332031470000
400	0.01838314862133440000	0.01763686809600240000	0.01690582799508420000	0.01619004440631480000	0.01548953325439670000	0.01480431030100200000
400	0.01413439114477160000	0.01347979122131450000	0.01284052580320920000	0.01221661000000210000	0.01160805875820900000	0.01101488686131450000
400	0.01043710892977150000	0.00987473942100181000	0.00932779262939643000	0.00879628268631438000	0.00828022356008384000	0.00777962905600171000
400	0.00729451281633353000	0.00682488832031414000	0.00637076888414612000	0.00593216766100157000	0.00550909764102081000	0.00510157165131386000
400	0.00470960235595841000	0.00433320225600142000	0.00397238368945840000	0.00362715883131381000	0.00329753969352065000	0.00298353812500107000
400	0.00268516581164557000	0.00240243427631348000	0.00213535487883298000	0.00188393881600091000	0.00164819712158271000	0.00142814066631325000
400	0.00122378015789526000	0.00103512614100065000	0.00086218899727019700	0.00070497894531318400	0.00056350604070742900	0.00043778017600038000
400	0.00032781108070734100	0.00023360832131280600	0.00015518130126979100	0.00009253926100027950	0.00004569127789455510	0.00001464626631253460
400	0	0	0	0	0	0
400	0	0	0	0	0	0
400	0	0	0	0	0	0
400	0	0	0	0	0	0
400	0	0	0	0	0	0
400	0	0	0	0	0	0
400	0	0	0	0	0	0
400	0	0	0	0	0	0
400	0	0	0	0	0	0
400	0	0	0	0	0	0
400	0	0	0	0	0	0
400	0	0	0	0	0	0
400	0	0	0	0	0	0
400	0	0	0	0	0	0
400	0	0	0	0	0	0
400	0	0	0	0	0	0
400	0	0	0	0	0	0
400	0	0	0	0	0	0
400	0	0	0	0	0	0
400	0	0	0	0	0	0
400	0	0	0	0	0	0
400	0	0	0	0	0	0
400	0	0	0	0	0	0
400	0	0	0	0	0	0
400	0	0	0	0	0	0
400	0	0	0	0	0	0
400	0	0	0	0	0	0
400	0	0	0	0	0	0
400	0	0	0	0	0	0
400	0	0	0	0	0	0
400	0	0	0	0	0	0
400	0	0	0	0	0	0
400	0	0	0	0	0	0
400	0	0	0	0	0	0
400	0	0	0	0	0	0
400	0	0	0	0	0	0
400	0	0	0	0	0	0
400	0	0	0	0	0	0
400	0	0	0	0	0	0
400	0	0	0	0	0	0
400	0	0	0	0	0	0
400	0	0	0	0	0	0
400	0	0	0	0	0	0
400	0	0	0	0	0	0
400	0	0	0	0	0	0
400	0	0	0	0	0	0
400	0	0	0	0	0	0
400	0	0	0	0	0	0
400	0	0	0	0	0	0
400	0	0	0	0	0	0
400	0	0	0	0	0	0
400	0	0	0	0	0	0
400	0	0	0	0	0	0
400	0	0	0	0	0	0
400	0	0	0	0	0	0
400	0	0	0	0	0	0
400	0	0	0	0	0	0
400	0	0	0	0	0	0
400	0	0	0	0	0	0
400	0	0	0	0	0	0
400	0	0	0	0	0	0
400	0	0	0	0	0	0
400	0	0	0	0	0	0
400	0	0	0	0	0	0
400	0	0	0	0	0	0
400	0	0	0	0	0	0
400	0	0	0	0	0	0
400	0	0	0	0	0	0
400	0	0	0	0	0	0
400	0	0	0	0	0	0
400	0	0	0	0	0	0
400	0	0	0	0	0	0
400	0	0	0	0	0	0
400	0	0	0	0	0	0
400	0	0	0	0	0	0
400	0	0	0	0	0	0
400	0	0	0	0	0	0
400	0	0	0	0	0	0
400	0	0	0	0	0	0
400	0	0	0	0	0	0
400	0	0	0	0	0	0
400	0	0	0	0	0	0





[CURVES]
;ID              	X-Value     	Y-Value

[CONTROLS]



[RULES]



[ENERGY]
 Global Efficiency  	75
 Global Price       	0
 Demand Charge      	0

[EMITTERS]
;Junction        	Coefficient

[QUALITY]
;Node            	InitQual

[SOURCES]
;Node            	Type        	Quality     	Pattern

[REACTIONS]
;Type     	Pipe/Tank       	Coefficient


[REACTIONS]
 Order Bulk            	1
 Order Tank            	1
 Order Wall            	1
 Global Bulk           	0
 Global Wall           	0
 Limiting Potential    	0
 Roughness Correlation 	0

[MIXING]
;Tank            	Model

[TIMES]
 Duration           	0:09 
 Hydraulic Timestep 	0:00:05 
 Quality Timestep   	0:05 
 Pattern Timestep   	0:00:01 
 Pattern Start      	0:00 
 Report Timestep    	1:00 
 Report Start       	0:00 
 Start ClockTime    	12 am
 Statistic          	NONE

[REPORT]
 Status             	Full
 Trials                 Yes
 Summary            	Yes
 Page               	0
 Nodes                  All
 Links                  All 

[OPTIONS]
 Flow_Units              	LPS
 Pressure_Units             METERS
 Headloss_Model           	D-W
 Specific_Gravity       	1
 Specific_Viscosity         1
 Maximum_Trials            	33
 Relative_Accuracy      	0.001
 Unbalanced              	Continue
 Demand_Pattern            	1
 Demand_Multiplier      	1.0
 Emitter_Exponent       	0.5
 Quality_Model            	None mg/L
 Specific_Diffusivity      	1
 Quality_Tolerance        	0.001
 Head_Tolerance             0.001
 Flow_Tolerance             0.001
 Flow_Change_Limit          0.001
 Step_Sizing                FULL
 VALVE_REP_TYPE             Toe
 Demand_Model               LOGISTIC
 MINIMUM_PRESSURE           0
 SERVICE_PRESSURE           177
 PRESSURE_EXPONENT          0.5
 Hyd_Solver                 CGGA
 Time_Weight                0.5
 TEMP_DISC_PARA             1

[COORDINATES]
;Node            	X-Coord           	Y-Coord
N3              	87.450            	6543.210          
N2              	961.930           	5658.440          
N5              	2649.180          	5658.440          
N4              	1414.360          	6965.590          
N6              	2361.110          	6965.020          
N7              	3750.550          	5656.400          
N8              	4091.790          	5653.120          
R1              	-529.840          	7427.980          

[VERTICES]
;Link            	X-Coord           	Y-Coord

[LABELS]
;X-Coord             Y-Coord             Label & Anchor Node
-149.180          	7047.330          	"P1"	
601.850           	6944.440          	"P2"	
478.400           	6296.300          	"P3"	
1887.860          	7170.780          	"P4"	
992.800           	6522.630          	"P5"	
1774.690          	5617.280          	"P6"	
3184.160          	5607.000          	"P7"	
2582.450          	6306.080          	"P8"	
1620.370          	6584.360          	"P9"	
-632.720          	7366.260          	"R1"	
-77.160           	6481.480          	"N3"	
1404.320          	7201.650          	"N4"	
2350.820          	7160.490          	"N6"	
859.050           	5576.130          	"N2"	
2677.610          	5561.250          	"N5"	
3636.830          	5596.710          	"VALVE"	
3667.700          	5864.200          	"N7"	
4048.350          	5853.910          	"N8"	

[BACKDROP]
  DIMENSIONS  	0.000             	0.000             	10000.000         	10000.000         
 UNITS          	None
 FILE           	
 OFFSET         	0.00            	0.00            

[END]
